LAMMPS (28 Mar 2023 - Update 1)
OMP_NUM_THREADS environment is not set. Defaulting to 1 thread. (src/comm.cpp:98)
  using 1 OpenMP thread(s) per MPI task
# LAMMPS input script using real units

units real
atom_style charge
boundary p p p

# Create lattice (Note: Adjust the lattice parameters as necessary)
lattice custom 5.411 basis 0.00 0.00 0.00                      basis 0.00 0.50 0.50                      basis 0.50 0.00 0.50                      basis 0.50 0.50 0.00                      basis 0.25 0.75 0.75                      basis 0.75 0.25 0.25                      basis 0.25 0.25 0.25                      basis 0.75 0.75 0.75                      basis 0.75 0.75 0.25                      basis 0.25 0.25 0.75                      basis 0.75 0.25 0.75                      basis 0.25 0.75 0.25
Lattice spacing in x,y,z = 5.411 5.411 5.411
region box block 0 8 0 8 0 8
create_box 2 box
Created orthogonal box = (0 0 0) to (43.288 43.288 43.288)
  2 by 2 by 2 MPI processor grid
create_atoms 1 box basis 1 1 basis 2 1 basis 3 1 basis 4 1                    basis 5 2 basis 6 2 basis 7 2 basis 8 2 basis 9 2 basis 10 2 basis 11 2 basis 12 2
Created 6144 atoms
  using lattice units in orthogonal box = (0 0 0) to (43.288 43.288 43.288)
  create_atoms CPU = 0.001 seconds

# Mass of Ce and O in atomic units
mass 1 140.116   # Cerium
mass 2 15.999    # Oxygen

# Set charges for the atom types
set type 1 charge 4.0   # Charge for Cerium (Ce)
Setting atom values ...
  2048 settings made for charge
set type 2 charge -2.0  # Charge for Oxygen (O)
Setting atom values ...
  4096 settings made for charge

# Naming atom types for OVITO visualization
group Ce type 1
2048 atoms in group Ce
group O type 2
4096 atoms in group O

# Dump the initial configuration
dump init all custom 1 initial_config.lammpstrj id element x y z vx vy vz
dump_modify init element Ce O first yes
run 0
WARNING: No fixes with time integration, atoms won't move (src/verlet.cpp:60)
WARNING: No pairwise cutoff or binsize set. Atom sorting therefore disabled. (src/atom.cpp:2355)
WARNING: Communication cutoff is 0.0. No ghost atoms will be generated. Atoms may get lost. (src/comm_brick.cpp:210)
Per MPI rank memory allocation (min/avg/max) = 3.719 | 3.719 | 3.719 Mbytes
   Step          Temp          E_pair         E_mol          TotEng         Press     
         0   0              0              0              0              0            
Loop time of 2.5155e-06 on 8 procs for 0 steps with 6144 atoms

94.4% CPU use with 8 MPI tasks x 1 OpenMP threads

MPI task timing breakdown:
Section |  min time  |  avg time  |  max time  |%varavg| %total
---------------------------------------------------------------
Pair    | 0          | 0          | 0          |   0.0 |  0.00
Neigh   | 0          | 0          | 0          |   0.0 |  0.00
Comm    | 0          | 0          | 0          |   0.0 |  0.00
Output  | 0          | 0          | 0          |   0.0 |  0.00
Modify  | 0          | 0          | 0          |   0.0 |  0.00
Other   |            | 2.515e-06  |            |       |100.00

Nlocal:            768 ave         768 max         768 min
Histogram: 8 0 0 0 0 0 0 0 0 0
Nghost:            109 ave         109 max         109 min
Histogram: 8 0 0 0 0 0 0 0 0 0
Neighs:              0 ave           0 max           0 min
Histogram: 8 0 0 0 0 0 0 0 0 0

Total # of neighbors = 0
Ave neighs/atom = 0
Neighbor list builds = 0
Dangerous builds = 0
undump init

# Stop LAMMPS after generating the initial dump file for debugging
# quit

# Buckingham potential with Coulombic term
pair_style buck/coul/long 10.0
pair_coeff 1 1 0.0 1.0 0.0
pair_coeff 1 2 27127.1511 0.3810 0.0
pair_coeff 2 2 524856.597 0.1490 643.164436

# I converted these to kcal/mol above, but the original values are below
# pair_coeff 1 2 11.350e4 0.3810 0.0
# pair_coeff 2 2 21.960e5 0.1490 2.691e3

# pair_coeff 1 1 A1 B1 C1
# pair_coeff 1 2 A12 B12 C12
# pair_coeff 2 2 A2 B2 C2

# Note: The parameters A, B, and C need to be provided for Ce-Ce, Ce-O, and O-O interactions.
# A = repulsive potential coefficient
# B = repulsive potential exponent
# C = van der Waals interaction coefficient
# Replace A1, B1, C1, A12, B12, C12, A2, B2, and C2 with their respective values.

kspace_style ewald 1.0e-4

# Timestep of 1 fs (since we are using real units)
timestep 1.0

# Loop over temperatures from 100 K to 3000 K in increments of 100 K
variable temp index 2000 2200 2400 2600 2800 3000 3200 3400 3600 3800 4000
label loop_temperature

# Set velocities for initial temperature of ${temp} K
velocity all create ${temp} 87287 loop geom
velocity all create 2000 87287 loop geom

# Apply NPT ensemble with P = 1 atm, T = ${temp} K, timestep = 1.0 fs, temperature damping = 100 fs (100x timestep), pressure damping = 1000 fs (1000x timestep)
fix 1 all npt temp ${temp} ${temp} 100.0 iso 1.0 1.0 1000.0
fix 1 all npt temp 2000 ${temp} 100.0 iso 1.0 1.0 1000.0
fix 1 all npt temp 2000 2000 100.0 iso 1.0 1.0 1000.0
thermo 100
thermo_style custom step pe ke etotal temp press vol

# Output dump
dump 1 all custom 100 dump_${temp}K.lammpstrj id element x y z vx vy vz
dump 1 all custom 100 dump_2000K.lammpstrj id element x y z vx vy vz
dump_modify 1 element Ce O

# Run the simulation for 10000 steps
run 10000
Ewald initialization ...
  using 12-bit tables for long-range coulomb (src/kspace.cpp:342)
  G vector (1/distance) = 0.3088922
  estimated absolute RMS force accuracy = 0.034397518
  estimated relative force accuracy = 0.0001035871
  KSpace vectors: actual max1d max3d = 5756 14 12194
                  kxmax kymax kzmax  = 14 14 14
Generated 0 of 1 mixed pair_coeff terms from geometric mixing rule
Neighbor list info ...
  update: every = 1 steps, delay = 0 steps, check = yes
  max neighbors/atom: 2000, page size: 100000
  master list distance cutoff = 12
  ghost atom cutoff = 12
  binsize = 6, bins = 8 8 8
  1 neighbor lists, perpetual/occasional/extra = 1 0 0
  (1) pair buck/coul/long, perpetual
      attributes: half, newton on
      pair build: half/bin/atomonly/newton
      stencil: half/bin/3d
      bin: standard
Per MPI rank memory allocation (min/avg/max) = 29.01 | 29.01 | 29.01 Mbytes
   Step         PotEng         KinEng         TotEng          Temp          Press          Volume    
         0  -4919029.4      36622.232     -4882407.1      2000           3303.1875      81115.26     
       100  -4899962        19595.473     -4880366.6      1070.1409     -2315.6568      82569.399    
       200  -4896823.7      20599.005     -4876224.7      1124.9454     -13703.42       83343.349    
       300  -4894846.2      23372.226     -4871474        1276.3955      8358.8422      82654.575    
       400  -4892059.9      25850.061     -4866209.8      1411.7141      9451.2246      82873.605    
       500  -4888868.5      28220.082     -4860648.4      1541.1448     -5740.7724      83831.895    
       600  -4885983.8      31038.195     -4854945.6      1695.0466     -2573.7695      84053.752    
       700  -4883512.4      33975.438     -4849537        1855.4542      5164.2861      84010.746    
       800  -4880683.3      35793.969     -4844889.3      1954.7672      1561.2895      84422.972    
       900  -4878997.7      37547.751     -4841450        2050.5441     -2018.6952      84818.767    
      1000  -4877600        37567.414     -4840032.6      2051.6179     -1677.5425      84846.808    
      1100  -4878508.2      37421.452     -4841086.7      2043.6467      1539.3924      84692.593    
      1200  -4880120.7      36701.159     -4843419.5      2004.3103     -2051.8507      84653.928    
      1300  -4880855.1      35903.354     -4844951.8      1960.7409     -2813.416       84539.99     
      1400  -4881100        36211.343     -4844888.7      1977.5607      2987.5292      84353.655    
      1500  -4879786.5      36320.413     -4843466.1      1983.5172      672.0052       84540.421    
      1600  -4878698.4      36754.662     -4841943.7      2007.2322     -1696.6374      84774.216    
      1700  -4878695.7      37491.985     -4841203.7      2047.4986     -1744.4002      84767.402    
      1800  -4879465.6      37477.888     -4841987.7      2046.7287     -762.53559      84667.879    
      1900  -4879784.9      36154.257     -4843630.7      1974.4431     -1986.9434      84640.274    
      2000  -4880475.1      35926.745     -4844548.4      1962.0183     -99.6936        84530.162    
      2100  -4880046.7      35816.778     -4844230        1956.0128      3202.8719      84446.649    
      2200  -4879470.1      36489.75      -4842980.4      1992.7649      561.411        84593.6      
      2300  -4878921.1      36985.594     -4841935.5      2019.8438      1240.8619      84736.287    
      2400  -4878761.2      36994.439     -4841766.7      2020.3268     -1665.2941      84804.474    
      2500  -4879285.3      36721.31      -4842564        2005.4108     -1377.6848      84705.299    
      2600  -4879874.6      36276.489     -4843598.1      1981.1184      242.89174      84532.494    
      2700  -4880164.3      35967.865     -4844196.4      1964.2639      2705.1883      84470.777    
      2800  -4880075.4      36235.495     -4843839.9      1978.8796     -2402.0635      84630.536    
      2900  -4879449.1      36668.895     -4842780.2      2002.5483      694.53255      84641.646    
      3000  -4878783.1      36823.784     -4841959.3      2011.0071      1318.6238      84626.822    
      3100  -4879059.6      36968.529     -4842091.1      2018.9118     -2165.3331      84717.212    
      3200  -4879443.1      36542.322     -4842900.8      1995.6359     -1005.9607      84669.801    
      3300  -4880431        36699.347     -4843731.7      2004.2113      2149.5541      84465.756    
      3400  -4880216        36074.349     -4844141.7      1970.0792     -93.046241      84515.61     
      3500  -4879646.9      35990.094     -4843656.8      1965.4779     -2925.9097      84677.919    
      3600  -4879507.6      36930.011     -4842577.6      2016.8083      18.97967       84612.939    
      3700  -4879253.8      37273.253     -4841980.6      2035.5533      3069.2885      84563.315    
      3800  -4879435.5      37064.253     -4842371.2      2024.1395     -2204.9874      84729.509    
      3900  -4879693.6      36447.588     -4843246        1990.4624     -3215.3656      84705.775    
      4000  -4880154.8      36277.159     -4843877.7      1981.155       1685.4388      84489.969    
      4100  -4879871.2      35996.19      -4843875        1965.8108      3279.9019      84504.067    
      4200  -4879708.1      36574.689     -4843133.5      1997.4036     -3183.0938      84711.05     
      4300  -4879275.2      37013.108     -4842262.1      2021.3464      516.85401      84662.179    
      4400  -4878956.6      36931.193     -4842025.4      2016.8729      2404.0605      84634.086    
      4500  -4878839.1      36217.252     -4842621.9      1977.8834     -1000.4556      84722.453    
      4600  -4879718.1      36297.899     -4843420.2      1982.2876     -1274.9423      84622.43     
      4700  -4880845.5      36935.255     -4843910.2      2017.0947      1367.96        84452.241    
      4800  -4879818.8      35984.928     -4843833.8      1965.1958      1924.074       84582.35     
      4900  -4879146.6      36132.849     -4843013.7      1973.274      -3421.284       84788.496    
      5000  -4879592.7      37547.448     -4842045.2      2050.5275      1114.8719      84657.672    
      5100  -4879332.9      37417.705     -4841915.2      2043.4421      754.62824      84649.403    
      5200  -4879561        36763.113     -4842797.9      2007.6937     -2354.7489      84734.867    
      5300  -4879716.7      35982.993     -4843733.7      1965.0901     -514.32833      84606.444    
      5400  -4880427.5      36457.673     -4843969.8      1991.0131      2364.1391      84458.06     
      5500  -4879827.2      36286.474     -4843540.7      1981.6637      2222.957       84566.033    
      5600  -4879377.5      36684.846     -4842692.6      2003.4195     -576.02723      84762.296    
      5700  -4879033.8      37034.802     -4841999        2022.5311     -1089.912       84749.53     
      5800  -4879404.7      37352.263     -4842052.5      2039.8682     -301.42393      84662.141    
      5900  -4880105        37170.965     -4842934        2029.9672     -993.37652      84619.144    
      6000  -4880120.3      36185.736     -4843934.6      1976.1622      889.75307      84565.467    
      6100  -4880276.6      36143.689     -4844132.9      1973.866       703.90735      84558.87     
      6200  -4880143        36734.867     -4843408.1      2006.1512     -122.7802       84552.086    
      6300  -4879531.1      37060.336     -4842470.7      2023.9255      123.99661      84614.22     
      6400  -4879143.3      37179.171     -4841964.1      2030.4153     -2605.742       84723.719    
      6500  -4879276.7      36879.511     -4842397.2      2014.0504      495.68225      84625.114    
      6600  -4879992.2      36684.997     -4843307.2      2003.4277      1388.0806      84544.963    
      6700  -4879727.2      35688.62      -4844038.6      1949.0139      28.10714       84592.764    
      6800  -4880120.4      36297.81      -4843822.6      1982.2827     -343.8597       84591.548    
      6900  -4879909.9      36935.08      -4842974.9      2017.0851      2098.1502      84535.914    
      7000  -4879065.2      36749.905     -4842315.3      2006.9724      1284.6036      84584.111    
      7100  -4879114.3      36820.726     -4842293.6      2010.8401     -654.93485      84721.068    
      7200  -4879849.8      36953.192     -4842896.6      2018.0742     -1810.8532      84745.741    
      7300  -4879717.6      36331.19      -4843386.4      1984.1057     -370.41079      84578.956    
      7400  -4880005        36356.651     -4843648.4      1985.4962      3260.1792      84503.422    
      7500  -4879472        36074.687     -4843397.3      1970.0977     -1634.7295      84658.971    
      7600  -4879501.8      36699.725     -4842802.1      2004.232       1297.3989      84628.487    
      7700  -4879190.6      36828.733     -4842361.9      2011.2774     -703.15067      84635.946    
      7800  -4878963.1      36488.606     -4842474.5      1992.7025      675.45695      84704.233    
      7900  -4879446.6      36439.892     -4843006.7      1990.0421     -607.48986      84709.2      
      8000  -4880216.8      36729.058     -4843487.8      2005.8339      970.94273      84528.533    
      8100  -4880309.2      36659.735     -4843649.5      2002.0481      1636.4525      84517.881    
      8200  -4879433.6      36033.581     -4843400        1967.8528     -2641.5509      84742.053    
      8300  -4879513.3      36913.697     -4842599.6      2015.9173     -1388.0592      84712.856    
      8400  -4879458.7      37312.51      -4842146.2      2037.6972      2310.0446      84523.54     
      8500  -4879331.7      36686.602     -4842645.1      2003.5153      638.0855       84645.283    
      8600  -4879273.8      35934.021     -4843339.8      1962.4157     -3601.8671      84832.096    
      8700  -4879781.2      36232.687     -4843548.5      1978.7263      686.89613      84615.908    
      8800  -4880007.5      36773.365     -4843234.1      2008.2536      3863.9271      84465.424    
      8900  -4879634.3      36733.032     -4842901.3      2006.051      -3639.8813      84710.859    
      9000  -4879241.7      36668.517     -4842573.2      2002.5277     -1512.6577      84744.858    
      9100  -4879346.2      36992.933     -4842353.2      2020.2446      2011.9876      84551.555    
      9200  -4879636.4      36738.999     -4842897.4      2006.3768     -963.74414      84597.559    
      9300  -4880102.5      36628.477     -4843474.1      2000.3411     -2725.1456      84713.248    
      9400  -4879921.5      36523.556     -4843398        1994.6111      197.98204      84619.933    
      9500  -4879145.1      36348.332     -4842796.8      1985.0419      1870.7381      84540.946    
      9600  -4878527.8      36555.356     -4841972.5      1996.3478     -486.31303      84696.905    
      9700  -4878694.7      36988.107     -4841706.6      2019.981       485.17535      84767.483    
      9800  -4879360.7      36671.634     -4842689        2002.6979     -1894.5521      84728.167    
      9900  -4879431.7      35979.208     -4843452.5      1964.8834      788.532        84556.565    
     10000  -4879876.7      36245.725     -4843630.9      1979.4383      1880.8922      84517.711    
Loop time of 351.228 on 8 procs for 10000 steps with 6144 atoms

Performance: 2.460 ns/day, 9.756 hours/ns, 28.472 timesteps/s, 174.929 katom-step/s
99.0% CPU use with 8 MPI tasks x 1 OpenMP threads

MPI task timing breakdown:
Section |  min time  |  avg time  |  max time  |%varavg| %total
---------------------------------------------------------------
Pair    | 41.578     | 43.442     | 45.005     |  19.7 | 12.37
Kspace  | 269.33     | 271.75     | 273.91     |   9.0 | 77.37
Neigh   | 1.7273     | 1.787      | 1.897      |   4.5 |  0.51
Comm    | 30.247     | 31.559     | 33.193     |  15.8 |  8.99
Output  | 0.19884    | 0.19888    | 0.19901    |   0.0 |  0.06
Modify  | 1.7117     | 1.7319     | 1.7503     |   1.0 |  0.49
Other   |            | 0.7591     |            |       |  0.22

Nlocal:            768 ave         775 max         763 min
Histogram: 3 0 1 0 1 1 0 0 0 2
Nghost:        5880.75 ave        5895 max        5870 min
Histogram: 2 2 0 0 0 1 1 0 0 2
Neighs:         201342 ave      209128 max      194035 min
Histogram: 1 1 1 0 1 1 1 1 0 1

Total # of neighbors = 1610737
Ave neighs/atom = 262.16423
Neighbor list builds = 342
Dangerous builds = 0

# Unfix the previous fix to prepare for the next loop iteration
unfix 1

# Dump settings will be cleared with the unfix command, so we remove it
undump 1

# Next iteration
next temp
jump SELF loop_temperature

# Set velocities for initial temperature of ${temp} K
velocity all create ${temp} 87287 loop geom
velocity all create 2200 87287 loop geom

# Apply NPT ensemble with P = 1 atm, T = ${temp} K, timestep = 1.0 fs, temperature damping = 100 fs (100x timestep), pressure damping = 1000 fs (1000x timestep)
fix 1 all npt temp ${temp} ${temp} 100.0 iso 1.0 1.0 1000.0
fix 1 all npt temp 2200 ${temp} 100.0 iso 1.0 1.0 1000.0
fix 1 all npt temp 2200 2200 100.0 iso 1.0 1.0 1000.0
thermo 100
thermo_style custom step pe ke etotal temp press vol

# Output dump
dump 1 all custom 100 dump_${temp}K.lammpstrj id element x y z vx vy vz
dump 1 all custom 100 dump_2200K.lammpstrj id element x y z vx vy vz
dump_modify 1 element Ce O

# Run the simulation for 10000 steps
run 10000
Ewald initialization ...
  using 12-bit tables for long-range coulomb (src/kspace.cpp:342)
  G vector (1/distance) = 0.30855946
  estimated absolute RMS force accuracy = 0.035165474
  estimated relative force accuracy = 0.00010589978
  KSpace vectors: actual max1d max3d = 5756 14 12194
                  kxmax kymax kzmax  = 14 14 14
Generated 0 of 1 mixed pair_coeff terms from geometric mixing rule
Per MPI rank memory allocation (min/avg/max) = 29.01 | 29.01 | 29.01 Mbytes
   Step         PotEng         KinEng         TotEng          Temp          Press          Volume    
     10000  -4879877.7      40284.456     -4839593.2      2200           4057.3294      84517.711    
     10100  -4877229.5      38757.216     -4838472.3      2116.5949     -426.02367      84853.64     
     10200  -4876156.8      39063.555     -4837093.3      2133.3246     -6170.3886      85230.649    
     10300  -4875411.8      39835.566     -4835576.2      2175.4854      927.46128      85070.65     
     10400  -4875336        40654.508     -4834681.5      2220.2092      3658.014       84954.4      
     10500  -4875235.1      40853.546     -4834381.6      2231.0789     -995.94207      85205.759    
     10600  -4875226.3      40600.388     -4834625.9      2217.2536     -5401.1329      85387.938    
     10700  -4875575.9      40424.865     -4835151        2207.668       1976.2973      85011.346    
     10800  -4876360.2      40572.464     -4835787.8      2215.7286      5940.8476      84775.876    
     10900  -4875751.1      39656.533     -4836094.5      2165.7081     -2160.1073      85122.721    
     11000  -4874875.1      39570.159     -4835304.9      2160.9911     -2231.8612      85243.754    
     11100  -4874928.3      40357.842     -4834570.4      2204.0078      409.56295      85110.594    
     11200  -4875026.8      40324.373     -4834702.4      2202.18        1033.6473      85055.268    
     11300  -4875144.1      39943.551     -4835200.5      2181.3826     -1124.2037      85129.372    
     11400  -4875718.2      39883.623     -4835834.5      2178.1099      1566.7369      85109.346    
     11500  -4876234.5      40500.13      -4835734.4      2211.7783     -1981.9778      85082.17     
     11600  -4874598.9      40151.829     -4834447.1      2192.7571      2790.2133      85030.344    
     11700  -4875223.4      41006.41      -4834216.9      2239.4271     -2351.9733      85189.592    
     11800  -4875324        40469.648     -4834854.4      2210.1136     -2269.948       85168.622    
     11900  -4875434.3      40027.345     -4835406.9      2185.9588      1755.8992      84959.3      
     12000  -4876014.2      40420.142     -4835594.1      2207.4101      307.05222      84895.124    
     12100  -4875612.5      39928.318     -4835684.2      2180.5508     -537.03643      85041.966    
     12200  -4875385.7      40510.314     -4834875.4      2212.3345     -1136.515       85183.685    
     12300  -4874793.2      40817         -4833976.2      2229.0831     -820.59355      85131.483    
     12400  -4874595.4      40293.571     -4834301.8      2200.4978      2281.0186      85071.355    
     12500  -4876021.2      40890.657     -4835130.6      2233.1057     -1694.6696      85125.231    
     12600  -4875673        40078.119     -4835594.9      2188.7317     -1253.6747      85070.664    
     12700  -4875550.6      40067.779     -4835482.8      2188.1669      3257.5832      84950.327    
     12800  -4874812.3      39854.912     -4834957.4      2176.5419      1728.4836      85048.937    
     12900  -4874546.2      40768.423     -4833777.8      2226.4303     -3191.7117      85252.659    
     13000  -4874410.6      41033.111     -4833377.5      2240.8853     -2802.6657      85307.495    
     13100  -4874519.8      40364.64      -4834155.2      2204.379       2493.1245      85040.853    
     13200  -4875664        40841.986     -4834822        2230.4476      2647.6063      84963.211    
     13300  -4875019.2      39585.239     -4835434        2161.8147     -3063.565       85191.684    
     13400  -4875453.3      40036.701     -4835416.6      2186.4697     -783.86437      85184.904    
     13500  -4875434.8      40774.123     -4834660.7      2226.7415      2793.0631      84994.845    
     13600  -4875345.7      41210.302     -4834135.4      2250.562       1440.4106      85039.192    
     13700  -4874730.7      39960.369     -4834770.4      2182.3011     -512.46468      85215.293    
     13800  -4875343.9      39620.419     -4835723.4      2163.7359     -1570.4615      85163.014    
     13900  -4876275.8      40620.458     -4835655.4      2218.3496      3256.6981      84901.665    
     14000  -4875857.3      40600.564     -4835256.7      2217.2632      1644.3115      84969.772    
     14100  -4875140        40622.529     -4834517.4      2218.4628     -2988.7294      85268.784    
     14200  -4874500.6      40699.403     -4833801.2      2222.661      -3839.9082      85291.228    
     14300  -4875142.3      40873.851     -4834268.4      2232.1878      3304.7696      84986.281    
     14400  -4875394.4      40592.872     -4834801.6      2216.8431      1871.4192      84978.945    
     14500  -4875938.2      40799.225     -4835139        2228.1124     -3854.0092      85190.602    
     14600  -4875335.1      39940.352     -4835394.7      2181.208      -1821.7793      85165.28     
     14700  -4875690.2      40453.002     -4835237.2      2209.2046      4692.5094      84919.918    
     14800  -4875213.6      40457.193     -4834756.5      2209.4335      2778.5427      85020.979    
     14900  -4875314.4      41155.48      -4834158.9      2247.568      -5503.2202      85382.973    
     15000  -4874848.6      40582.564     -4834266.1      2216.2802     -692.91238      85208.296    
     15100  -4876209.6      40982.216     -4835227.4      2238.1058      3179.3915      84907.877    
     15200  -4875862.8      39994.067     -4835868.7      2184.1414      805.36737      85009.736    
     15300  -4876025.2      40399.044     -4835626.1      2206.2578     -1902.2399      85135.63     
     15400  -4876079.6      41172.795     -4834906.8      2248.5137     -1841.2622      85052.617    
     15500  -4874973.9      40314.158     -4834659.8      2201.6221      4204.3393      85006.878    
     15600  -4875507.1      40651.35      -4834855.7      2220.0367     -1385.9495      85151.487    
     15700  -4874860        39795.602     -4835064.4      2173.3029     -781.76877      85182.053    
     15800  -4875651        40699.783     -4834951.2      2222.6817      915.95632      85078.438    
     15900  -4875587.2      40497.367     -4835089.9      2211.6275      1382.8923      85047.37     
     16000  -4875723.9      40346.651     -4835377.3      2203.3966     -2357.2185      85146.261    
     16100  -4875862.2      39772.189     -4836090        2172.0243     -1022.7726      85110.066    
     16200  -4875615.7      39319.892     -4836295.8      2147.3236      2009.5313      84940.397    
     16300  -4875582.2      40239.441     -4835342.8      2197.5417      3882.6801      84913.82     
     16400  -4875193        40377.549     -4834815.5      2205.084      -832.101        85146.858    
     16500  -4875436.8      40772.902     -4834663.9      2226.6749     -3909.8487      85270.515    
     16600  -4875080.3      40243.515     -4834836.7      2197.7642      1399.4523      85012.022    
     16700  -4875646.6      39988.578     -4835658        2183.8416      2843.197       84887.406    
     16800  -4876389.9      39868.8       -4836521.1      2177.3003     -1370.3668      85049.038    
     16900  -4875663.5      39716.103     -4835947.4      2168.9614     -3502.1896      85120.338    
     17000  -4875499.8      40281.782     -4835218.1      2199.854       1725.8949      85010.619    
     17100  -4875000.1      40186.95      -4834813.1      2194.675      -423.16691      85096.75     
     17200  -4874922.7      40293.539     -4834629.2      2200.4961     -3369.8618      85216.24     
     17300  -4875319.5      40581.801     -4834737.7      2216.2385     -860.54524      85121.703    
     17400  -4875716.4      39964.255     -4835752.1      2182.5133      2559.3203      84963.866    
     17500  -4876275.7      40254.321     -4836021.4      2198.3543     -110.46419      85004.869    
     17600  -4875856.4      40336.935     -4835519.4      2202.866       925.19266      85044.426    
     17700  -4875577.8      40982.292     -4834595.5      2238.11       -2966.5582      85106.372    
     17800  -4874918.3      40283.489     -4834634.8      2199.9472     -1194.6267      85111.906    
     17900  -4875208.2      40313.936     -4834894.2      2201.61        347.7081       85089.442    
     18000  -4875661.9      40262.688     -4835399.2      2198.8113      571.77572      85081.099    
     18100  -4876181        39896.904     -4836284.1      2178.8352     -2125.0758      85115.886    
     18200  -4876446.4      39722.568     -4836723.8      2169.3144     -271.65272      84981.69     
     18300  -4876334.8      40728.685     -4835606.1      2224.2601      4854.329       84848.68     
     18400  -4875117.6      40188.875     -4834928.7      2194.7802     -3014.4043      85151.534    
     18500  -4875017.9      40440.808     -4834577.1      2208.5387     -4088.1897      85261.703    
     18600  -4875377.9      41054.96      -4834322.9      2242.0785      2254.05        85005.797    
     18700  -4875087.8      40020.6       -4835067.2      2185.5904      3572.8258      84927.004    
     18800  -4875682.4      39902.16      -4835780.2      2179.1222     -2680.6963      85161.2      
     18900  -4875232.6      39701.75      -4835530.9      2168.1775     -2491.2962      85179.834    
     19000  -4875294.3      40325.234     -4834969        2202.227       2587.6005      84970.251    
     19100  -4875774.6      40859.192     -4834915.4      2231.3873      3137.8864      85007.905    
     19200  -4875309.5      40173.678     -4835135.8      2193.9503     -3487.9436      85251.834    
     19300  -4874972.4      39913.119     -4835059.3      2179.7207     -278.61507      85141.463    
     19400  -4875600.9      40526.15      -4835074.8      2213.1993      3972.7454      84889.429    
     19500  -4875559.8      40311.314     -4835248.5      2201.4668     -13.883984      85024.623    
     19600  -4875488.8      39476.13      -4836012.7      2155.856      -2993.7698      85175.473    
     19700  -4875739.8      39131.651     -4836608.1      2137.0434      155.65842      84952.873    
     19800  -4876211.2      40414.802     -4835796.4      2207.1184      5477.9075      84723.054    
     19900  -4875248.1      40222.525     -4835025.5      2196.6179      405.35944      85078.883    
     20000  -4874738.8      40039.11      -4834699.7      2186.6013     -9185.7382      85508.301    
Loop time of 350.58 on 8 procs for 10000 steps with 6144 atoms

Performance: 2.464 ns/day, 9.738 hours/ns, 28.524 timesteps/s, 175.253 katom-step/s
98.8% CPU use with 8 MPI tasks x 1 OpenMP threads

MPI task timing breakdown:
Section |  min time  |  avg time  |  max time  |%varavg| %total
---------------------------------------------------------------
Pair    | 41.37      | 43.14      | 44.987     |  18.9 | 12.31
Kspace  | 269.81     | 271.78     | 273.92     |   7.3 | 77.52
Neigh   | 1.9349     | 2.0008     | 2.1105     |   4.4 |  0.57
Comm    | 29.689     | 30.792     | 32.436     |  16.0 |  8.78
Output  | 0.20034    | 0.20037    | 0.20048    |   0.0 |  0.06
Modify  | 1.8697     | 1.8928     | 1.9124     |   1.1 |  0.54
Other   |            | 0.7744     |            |       |  0.22

Nlocal:            768 ave         776 max         753 min
Histogram: 1 0 0 0 0 2 1 1 1 2
Nghost:        5854.75 ave        5874 max        5840 min
Histogram: 1 0 1 3 0 1 0 1 0 1
Neighs:         198732 ave      208122 max      192535 min
Histogram: 2 1 1 0 2 0 0 0 1 1

Total # of neighbors = 1589858
Ave neighs/atom = 258.76595
Neighbor list builds = 383
Dangerous builds = 0

# Unfix the previous fix to prepare for the next loop iteration
unfix 1

# Dump settings will be cleared with the unfix command, so we remove it
undump 1

# Next iteration
next temp
jump SELF loop_temperature

# Set velocities for initial temperature of ${temp} K
velocity all create ${temp} 87287 loop geom
velocity all create 2400 87287 loop geom

# Apply NPT ensemble with P = 1 atm, T = ${temp} K, timestep = 1.0 fs, temperature damping = 100 fs (100x timestep), pressure damping = 1000 fs (1000x timestep)
fix 1 all npt temp ${temp} ${temp} 100.0 iso 1.0 1.0 1000.0
fix 1 all npt temp 2400 ${temp} 100.0 iso 1.0 1.0 1000.0
fix 1 all npt temp 2400 2400 100.0 iso 1.0 1.0 1000.0
thermo 100
thermo_style custom step pe ke etotal temp press vol

# Output dump
dump 1 all custom 100 dump_${temp}K.lammpstrj id element x y z vx vy vz
dump 1 all custom 100 dump_2400K.lammpstrj id element x y z vx vy vz
dump_modify 1 element Ce O

# Run the simulation for 10000 steps
run 10000
Ewald initialization ...
  using 12-bit tables for long-range coulomb (src/kspace.cpp:342)
  G vector (1/distance) = 0.30846504
  estimated absolute RMS force accuracy = 0.03545466
  estimated relative force accuracy = 0.00010677065
  KSpace vectors: actual max1d max3d = 5756 14 12194
                  kxmax kymax kzmax  = 14 14 14
Generated 0 of 1 mixed pair_coeff terms from geometric mixing rule
Per MPI rank memory allocation (min/avg/max) = 29.01 | 29.01 | 29.01 Mbytes
   Step         PotEng         KinEng         TotEng          Temp          Press          Volume    
     20000  -4874739.1      43946.679     -4830792.4      2400          -7098.6971      85508.301    
     20100  -4872312.3      42710.967     -4829601.4      2332.5157      1128.4926      85344.241    
     20200  -4871844.8      43357.379     -4828487.4      2367.8174      3731.6955      85284.177    
     20300  -4870979.8      43594.385     -4827385.4      2380.7607      45.6513        85531.107    
     20400  -4870578.9      43997.172     -4826581.8      2402.7575     -2989.3499      85720.649    
     20500  -4871083.3      44977.902     -4826105.4      2456.3168     -2237.7167      85586.117    
     20600  -4871113.3      44346.89      -4826766.4      2421.8562      2979.0757      85438.285    
     20700  -4871155.3      43549.977     -4827605.3      2378.3355     -1751.2246      85558.057    
     20800  -4871616.7      43945.136     -4827671.5      2399.9158     -452.45361      85573.868    
     20900  -4871635.1      44426.259     -4827208.9      2426.1907      657.83518      85462.559    
     21000  -4870781.7      44547.158     -4826234.6      2432.7931      2774.1046      85488.587    
     21100  -4869974.8      43933.97      -4826040.9      2399.306      -1544.4012      85688.147    
     21200  -4870726        43404.23      -4827321.8      2370.376      -2425.022       85718.909    
     21300  -4871397.8      43479.777     -4827918        2374.5017     -766.12589      85500.64     
     21400  -4872029.1      44161.318     -4827867.8      2411.7218      3997.033       85250.249    
     21500  -4871599.5      44260.659     -4827338.8      2417.147       2638.18        85437.489    
     21600  -4870093.8      43694.193     -4826399.6      2386.2113     -6523.8276      85844.358    
     21700  -4870913.8      44880.698     -4826033.1      2451.0083     -3359.4236      85694.875    
     21800  -4871006        44545.861     -4826460.1      2432.7223      3678.1761      85366.007    
     21900  -4871442.6      44428.796     -4827013.8      2426.3292      358.50868      85499.127    
     22000  -4871363.6      44149.664     -4827213.9      2411.0853     -6541.3979      85786.127    
     22100  -4870372.7      43223.531     -4827149.2      2360.5077      60.564007      85649.68     
     22200  -4870763.5      44380.61      -4826382.9      2423.6977      4828.6951      85397.048    
     22300  -4870106.4      44168.573     -4825937.8      2412.118       1493.7664      85570.611    
     22400  -4870123.2      43292.61      -4826830.6      2364.2802     -5670.3617      85919.501    
     22500  -4871857.6      44201.177     -4827656.4      2413.8986     -3479.7251      85691.8      
     22600  -4871776.8      44117.437     -4827659.4      2409.3254      7145.4107      85185.603    
     22700  -4871702.5      44179.354     -4827523.1      2412.7068      3840.9977      85295.64     
     22800  -4871132.2      43684.197     -4827448        2385.6655     -6348.8451      85740.58     
     22900  -4870353.5      43823.946     -4826529.5      2393.2974     -3975.3457      85770.931    
     23000  -4870714.9      44733.288     -4825981.6      2442.958       3029.549       85490.423    
     23100  -4870972.3      44234.456     -4826737.8      2415.716       2212.488       85436.922    
     23200  -4871473.9      44077.449     -4827396.5      2407.1416     -4666.3354      85618.09     
     23300  -4871333.6      43877.396     -4827456.2      2396.2163     -244.06557      85554.774    
     23400  -4871266.4      44080.191     -4827186.2      2407.2913      4717.9084      85431.016    
     23500  -4870890.3      44300.401     -4826589.9      2419.3173      1355.6655      85529.297    
     23600  -4870345.2      44579.886     -4825765.3      2434.5805     -422.60475      85649.765    
     23700  -4870518.8      44728.181     -4825790.6      2442.6791     -3399.8505      85691.965    
     23800  -4870818        43749.543     -4827068.4      2389.2341      605.67248      85544.735    
     23900  -4870882.6      43376.133     -4827506.5      2368.8416      4154.8752      85355.788    
     24000  -4871320.7      43718.87      -4827601.8      2387.559      -359.401        85471.236    
     24100  -4871017.5      43863.122     -4827154.4      2395.4369     -2176.3007      85674.892    
     24200  -4870555.4      44392.941     -4826162.5      2424.3711     -1133.3879      85660.117    
     24300  -4870519.4      44429.881     -4826089.5      2426.3884      2459.0496      85504.487    
     24400  -4871326.5      44563.202     -4826763.3      2433.6693      442.97766      85530.017    
     24500  -4870416.5      43358.688     -4827057.8      2367.8889     -383.13488      85611.968    
     24600  -4871110.9      43948.841     -4827162        2400.1181     -317.29916      85568.203    
     24700  -4871392.8      44115.018     -4827277.8      2409.1933      2078.0384      85444.103    
     24800  -4871247.4      43436.501     -4827810.9      2372.1384      2233.4732      85536.395    
     24900  -4871590.1      43607.907     -4827982.2      2381.4991     -4621.1658      85667.534    
     25000  -4871010.6      43805.005     -4827205.6      2392.263       984.81196      85501.425    
     25100  -4870963.3      44549.029     -4826414.2      2432.8953      3184.6933      85435.311    
     25200  -4870545.9      43797.352     -4826748.6      2391.845      -1237.2625      85614.075    
     25300  -4871560.7      44377.769     -4827182.9      2423.5425     -3196.8507      85649.69     
     25400  -4871557.6      43938.624     -4827619        2399.5601      976.60745      85440.499    
     25500  -4873415.5      44444.23      -4828971.3      2427.1721     -1296.7942      85341.013    
     25600  -4872643.4      43542.994     -4829100.4      2377.9541      1517.6477      85331.972    
     25700  -4871760.2      43615.284     -4828144.9      2381.902       190.59167      85427.581    
     25800  -4870380.8      42948.996     -4827431.8      2345.5149     -932.68465      85560.041    
     25900  -4870872.2      43945.212     -4826927        2399.9199     -1608.118       85589.036    
     26000  -4870644.1      44048.826     -4826595.3      2405.5784      2158.4888      85589.862    
     26100  -4871347        44549.021     -4826798        2432.8949     -2542.9565      85668.903    
     26200  -4871675.7      43796.464     -4827879.2      2391.7966     -1527.5567      85614.911    
     26300  -4871778.5      43630.188     -4828148.3      2382.7159     -312.46472      85404.874    
     26400  -4870829        43199.08      -4827629.9      2359.1724      2672.1516      85339.024    
     26500  -4870363.5      43753.543     -4826609.9      2389.4525      443.55221      85582.144    
     26600  -4870132.4      43623.975     -4826508.4      2382.3766     -4476.5331      85804.295    
     26700  -4870821.3      44157.764     -4826663.5      2411.5277     -763.34208      85646.071    
     26800  -4871479        44299.101     -4827179.9      2419.2463      3426.4387      85358.736    
     26900  -4871998.7      43997.355     -4828001.4      2402.7675      62.60541       85456.947    
     27000  -4871526.9      43507.4       -4828019.5      2376.0103     -4633.2564      85697.104    
     27100  -4871652.9      44168.97      -4827483.9      2412.1397     -2147.96        85531.959    
     27200  -4871365.9      44273.997     -4827091.9      2417.8754      7751.8609      85215.454    
     27300  -4871347        44198.432     -4827148.6      2413.7487      2049.2353      85442.677    
     27400  -4871139.9      43505.53      -4827634.4      2375.9081     -8274.5929      85869.134    
     27500  -4870883.8      43016.887     -4827866.9      2349.2226     -324.80623      85640.626    
     27600  -4870980.2      43872.849     -4827107.3      2395.968       8588.5378      85193.764    
     27700  -4871020.1      44430.4       -4826589.7      2426.4168      2173.1053      85442.636    
     27800  -4870352.3      43814.726     -4826537.5      2392.7938     -6541.7324      85924.265    
     27900  -4871321.8      44693.347     -4826628.5      2440.7768     -4840.7504      85739.855    
     28000  -4871283.5      44331.726     -4826951.7      2421.028       6004.9645      85277.431    
     28100  -4871626.4      43712.937     -4827913.5      2387.235       3421.3246      85345.592    
     28200  -4871822.8      43760.127     -4828062.7      2389.8121     -6043.0129      85677.794    
     28300  -4870890.6      43657.713     -4827232.9      2384.2191     -1452.3018      85548.435    
     28400  -4870986        44235.995     -4826750        2415.8         4355.2617      85361.411    
     28500  -4871028.7      44050.898     -4826977.8      2405.6916     -989.98766      85542.835    
     28600  -4870863.5      43731.711     -4827131.8      2388.2603     -3584.1342      85689.425    
     28700  -4871229.4      44134.879     -4827094.6      2410.2779      1563.0277      85484.818    
     28800  -4870859.5      43713.315     -4827146.2      2387.2557      4461.5817      85307.643    
     28900  -4871210.8      43409.9       -4827800.9      2370.6856      1719.9453      85465.544    
     29000  -4871344        43278.834     -4828065.2      2363.5279     -3302.8188      85638.674    
     29100  -4871006.9      43744.731     -4827262.2      2388.9713      74.046616      85508.853    
     29200  -4871325.6      44780.985     -4826544.6      2445.5628      1840.3624      85425.641    
     29300  -4871012.6      44277.85      -4826734.7      2418.0858     -1098.1957      85601.169    
     29400  -4870281.7      43137.194     -4827144.6      2355.7927     -4174.8765      85719.71     
     29500  -4871522.5      44236.504     -4827286        2415.8279     -1315.7993      85538.018    
     29600  -4871589.9      43674.014     -4827915.9      2385.1093      2711.8824      85356.286    
     29700  -4872282.3      43598.101     -4828684.2      2380.9636      930.16258      85392.746    
     29800  -4871738.2      43574.591     -4828163.6      2379.6797     -1872.1945      85548.205    
     29900  -4871004.9      43824.305     -4827180.6      2393.317      -1672.9427      85543.581    
     30000  -4870692.1      43868.19      -4826823.9      2395.7136      1161.8747      85490.524    
Loop time of 349.78 on 8 procs for 10000 steps with 6144 atoms

Performance: 2.470 ns/day, 9.716 hours/ns, 28.589 timesteps/s, 175.653 katom-step/s
99.0% CPU use with 8 MPI tasks x 1 OpenMP threads

MPI task timing breakdown:
Section |  min time  |  avg time  |  max time  |%varavg| %total
---------------------------------------------------------------
Pair    | 40.635     | 42.936     | 44.738     |  20.6 | 12.28
Kspace  | 268.69     | 271.23     | 274.39     |   9.6 | 77.54
Neigh   | 2.0197     | 2.1164     | 2.1677     |   3.8 |  0.61
Comm    | 29.226     | 30.725     | 32.265     |  17.2 |  8.78
Output  | 0.2024     | 0.20243    | 0.2025     |   0.0 |  0.06
Modify  | 1.7955     | 1.8137     | 1.8252     |   0.6 |  0.52
Other   |            | 0.759      |            |       |  0.22

Nlocal:            768 ave         778 max         756 min
Histogram: 1 0 1 1 0 1 2 0 1 1
Nghost:         5873.5 ave        5887 max        5866 min
Histogram: 1 2 1 1 1 1 0 0 0 1
Neighs:         198681 ave      205047 max      188796 min
Histogram: 1 0 0 1 1 1 0 1 1 2

Total # of neighbors = 1589447
Ave neighs/atom = 258.69906
Neighbor list builds = 406
Dangerous builds = 0

# Unfix the previous fix to prepare for the next loop iteration
unfix 1

# Dump settings will be cleared with the unfix command, so we remove it
undump 1

# Next iteration
next temp
jump SELF loop_temperature

# Set velocities for initial temperature of ${temp} K
velocity all create ${temp} 87287 loop geom
velocity all create 2600 87287 loop geom

# Apply NPT ensemble with P = 1 atm, T = ${temp} K, timestep = 1.0 fs, temperature damping = 100 fs (100x timestep), pressure damping = 1000 fs (1000x timestep)
fix 1 all npt temp ${temp} ${temp} 100.0 iso 1.0 1.0 1000.0
fix 1 all npt temp 2600 ${temp} 100.0 iso 1.0 1.0 1000.0
fix 1 all npt temp 2600 2600 100.0 iso 1.0 1.0 1000.0
thermo 100
thermo_style custom step pe ke etotal temp press vol

# Output dump
dump 1 all custom 100 dump_${temp}K.lammpstrj id element x y z vx vy vz
dump 1 all custom 100 dump_2600K.lammpstrj id element x y z vx vy vz
dump_modify 1 element Ce O

# Run the simulation for 10000 steps
run 10000
Ewald initialization ...
  using 12-bit tables for long-range coulomb (src/kspace.cpp:342)
  G vector (1/distance) = 0.30846672
  estimated absolute RMS force accuracy = 0.035449174
  estimated relative force accuracy = 0.00010675414
  KSpace vectors: actual max1d max3d = 5756 14 12194
                  kxmax kymax kzmax  = 14 14 14
Generated 0 of 1 mixed pair_coeff terms from geometric mixing rule
Per MPI rank memory allocation (min/avg/max) = 29.01 | 29.01 | 29.01 Mbytes
   Step         PotEng         KinEng         TotEng          Temp          Press          Volume    
     30000  -4870692.1      47608.902     -4823083.2      2600           3162.0862      85490.524    
     30100  -4868324.4      46322.932     -4822001.4      2529.7711      2524.9807      85697.344    
     30200  -4867054.5      46298.66      -4820755.8      2528.4455     -4716.9098      86127.035    
     30300  -4866575.3      47161.722     -4819413.6      2575.5788     -5598.3763      86176.724    
     30400  -4866848.9      48500.434     -4818348.5      2648.688       2475.2237      85884.531    
     30500  -4866763.8      48308.922     -4818454.9      2638.2292      3310.6336      85887.224    
     30600  -4866247.1      46901.543     -4819345.5      2561.37       -3297.746       86165.017    
     30700  -4866653.8      46836.281     -4819817.5      2557.8059     -3064.8108      86134.847    
     30800  -4867352.8      47945.603     -4819407.2      2618.3878      4487.7858      85844.347    
     30900  -4866116.5      47852.373     -4818264.1      2613.2964      1991.2754      85910.514    
     31000  -4866229.3      48290.709     -4817938.6      2637.2346     -3600.3923      86181.605    
     31100  -4866368.1      47215.883     -4819152.2      2578.5366     -4603.3475      86202.542    
     31200  -4867355.9      47306.41      -4820049.5      2583.4804      3517.8231      85864.975    
     31300  -4866887.5      47088.528     -4819799        2571.5815      6552.4962      85754.782    
     31400  -4866708.1      47533.16      -4819174.9      2595.8636     -544.75609      86080.672    
     31500  -4865572.1      47393.803     -4818178.3      2588.2531     -4155.3658      86315.23     
     31600  -4866020.7      48134.757     -4817886        2628.7178     -195.58304      86184.567    
     31700  -4866582.9      48321.631     -4818261.3      2638.9233      2402.515       85965.041    
     31800  -4866432.4      47517.656     -4818914.8      2595.0169     -262.72118      86045.681    
     31900  -4866013.2      46817.374     -4819195.8      2556.7734     -4623.3954      86189.803    
     32000  -4866701.5      47609.359     -4819092.2      2600.025      -651.46498      86039.716    
     32100  -4866248.7      47389.527     -4818859.2      2588.0196      726.24099      85882.457    
     32200  -4866380.4      47550.917     -4818829.4      2596.8334      4398.3648      85957.226    
     32300  -4866860.1      47694.654     -4819165.4      2604.683      -2252.3765      86196.243    
     32400  -4867104.5      47665.588     -4819438.9      2603.0957     -2712.7179      86165.302    
     32500  -4866509.5      47521.304     -4818988.2      2595.2161      3022.4263      85941.315    
     32600  -4866122.7      47824.579     -4818298.1      2611.7785      3606.1685      85913.526    
     32700  -4866148.7      47743.385     -4818405.3      2607.3444     -4468.9971      86162.108    
     32800  -4867098.8      47555.312     -4819543.5      2597.0734     -5455.9588      86206.435    
     32900  -4867517.4      47563.666     -4819953.7      2597.5296      2843.3068      85889.757    
     33000  -4867601.3      47715.577     -4819885.7      2605.8257      5126.9022      85733.848    
     33100  -4866634.4      47668.145     -4818966.3      2603.2353     -2513.9278      86032.212    
     33200  -4865645.4      47702.014     -4817943.4      2605.085      -2352.8288      86248.004    
     33300  -4866355        48344.3       -4818010.7      2640.1613     -3362.6829      86120.26     
     33400  -4866886.3      47838.116     -4819048.2      2612.5178      3168.8165      85835.809    
     33500  -4867239.8      47607.559     -4819632.2      2599.9266      3667.518       85850.486    
     33600  -4867406        47757.075     -4819648.9      2608.092      -2578.9453      86054.836    
     33700  -4866869.8      47723.335     -4819146.5      2606.2494     -3602.6886      86084.104    
     33800  -4866341.5      48151.551     -4818189.9      2629.6349      2576.786       85969.427    
     33900  -4865666.1      48073.18      -4817592.9      2625.355      -169.91001      86049.958    
     34000  -4866853.2      48331.318     -4818521.9      2639.4523     -4288.6709      86144.295    
     34100  -4866830.1      47248.818     -4819581.3      2580.3352     -1317.0895      85999.315    
     34200  -4867418.7      47612.332     -4819806.4      2600.1873      3952.3551      85799.618    
     34300  -4867011.2      47321.332     -4819689.9      2584.2953      889.83124      85913.797    
     34400  -4866002        47145.028     -4818857        2574.6671     -1813.4629      86138.511    
     34500  -4866724.7      48691.323     -4818033.3      2659.1128     -4017.3727      86174.626    
     34600  -4866566.1      48340.183     -4818225.9      2639.9365      207.97785      86013.112    
     34700  -4866687.7      47555.823     -4819131.9      2597.1013      635.95421      85949.389    
     34800  -4867111.8      47687.213     -4819424.6      2604.2767      1099.1134      85972.503    
     34900  -4867256.9      47928.191     -4819328.7      2617.4369     -3337.8797      86018.475    
     35000  -4866561.4      47496.002     -4819065.4      2593.8344     -2759.7994      85975.736    
     35100  -4866257.9      47532.863     -4818725        2595.8474      3255.8211      85869.772    
     35200  -4866382.7      47611.458     -4818771.3      2600.1396      1437.691       85999.92     
     35300  -4866908.1      47587.969     -4819320.2      2598.8568     -2513.0938      86190.184    
     35400  -4866743.3      46812.309     -4819931        2556.4967     -3054.9316      86063.356    
     35500  -4867247.3      47314.747     -4819932.5      2583.9357      4726.2873      85660.498    
     35600  -4867116.4      47692.969     -4819423.4      2604.591       4868.9415      85705.931    
     35700  -4866461.3      47798.051     -4818663.3      2610.3298     -4231.917       86175.068    
     35800  -4865568        47667.963     -4817900.1      2603.2254     -4310.4205      86377.891    
     35900  -4866116        48733.01      -4817383        2661.3894     -2838.8442      86162.208    
     36000  -4867052.5      48266.015     -4818786.5      2635.886       4947.3441      85814.376    
     36100  -4866445.7      46863.418     -4819582.3      2559.2879      2834.2897      85890.86     
     36200  -4866873.6      47272.777     -4819600.8      2581.6437     -1964.0825      86088.42     
     36300  -4866152.5      47025.858     -4819126.6      2568.159      -2752.2015      86112.264    
     36400  -4866523.5      48192.297     -4818331.2      2631.8601      3059.7027      85970.407    
     36500  -4866701.5      48192.316     -4818509.2      2631.8612      1967.1426      85938.937    
     36600  -4867242.8      47414.013     -4819828.8      2589.3568     -768.45111      86053.961    
     36700  -4867239.7      47277.379     -4819962.3      2581.895      -3481.852       86079.761    
     36800  -4866694.1      47193.404     -4819500.7      2577.309       3181.3644      85923.753    
     36900  -4866969.6      48033.314     -4818936.3      2623.1778      510.6085       85950.135    
     37000  -4866262.9      47309.067     -4818953.9      2583.6255      1980.9778      85991.34     
     37100  -4866964.3      47673.459     -4819290.8      2603.5255     -264.82768      86034.821    
     37200  -4867629.2      46868.525     -4820760.7      2559.5668     -1336.8597      86012.188    
     37300  -4867922.6      47196.25      -4820726.4      2577.4644     -738.44844      85911.488    
     37400  -4867205.9      47332.566     -4819873.3      2584.9089      2742.3256      85804.461    
     37500  -4866828.5      47462.696     -4819365.8      2592.0155      1674.675       85976.522    
     37600  -4866179.1      47300.052     -4818879.1      2583.1332     -3770.1511      86215.009    
     37700  -4866749        48218.305     -4818530.7      2633.2805      329.70068      86143.926    
     37800  -4866591.1      48068.986     -4818522.1      2625.1259      1357.2179      85955.863    
     37900  -4866924        47186.314     -4819737.7      2576.9218      3069.7648      85833.69     
     38000  -4867758.2      47544.935     -4820213.3      2596.5067     -60.097774      85962.553    
     38100  -4867033.3      47209.524     -4819823.8      2578.1893     -2933.7867      86084.964    
     38200  -4866921.5      48111.165     -4818810.4      2627.4294      3109.4648      85971.633    
     38300  -4866404        47795.432     -4818608.6      2610.1867      1680.4356      85971.235    
     38400  -4866741.1      47783.002     -4818958.1      2609.5079     -973.71981      86081.359    
     38500  -4866654.4      47251.505     -4819402.9      2580.4819     -1744.8396      86077.656    
     38600  -4867225.7      47291.681     -4819934        2582.6761      801.50213      85950.038    
     38700  -4867741.6      46772.739     -4820968.8      2554.3358      798.66468      85886.496    
     38800  -4868061        47381.882     -4820679.1      2587.602      -1023.1284      85909.142    
     38900  -4867202.3      47780.969     -4819421.3      2609.3968     -119.62294      85948.743    
     39000  -4866704.6      47724.793     -4818979.8      2606.329      -1969.9161      86055.069    
     39100  -4866378.3      47558.962     -4818819.4      2597.2727      3342.1101      86031.806    
     39200  -4867157.5      48263.505     -4818894        2635.7489     -1925.8767      86127.403    
     39300  -4866889.7      47402.318     -4819487.3      2588.7181     -2814.9521      86155.797    
     39400  -4867333.6      47285.761     -4820047.8      2582.3527      999.54252      85932.12     
     39500  -4867251.9      47486.864     -4819765        2593.3353      4109.7778      85776.083    
     39600  -4866487.2      47760.089     -4818727.1      2608.2565      1247.7912      85974.164    
     39700  -4865799.5      47525.172     -4818274.4      2595.4273     -2066.9662      86265.424    
     39800  -4866381.7      48143.646     -4818238.1      2629.2032     -1569.6087      86239.008    
     39900  -4867178.1      47664.873     -4819513.3      2603.0567      1397.6152      85926.906    
     40000  -4867172.7      46758.197     -4820414.5      2553.5416      4021.2082      85715.066    
Loop time of 353.073 on 8 procs for 10000 steps with 6144 atoms

Performance: 2.447 ns/day, 9.808 hours/ns, 28.323 timesteps/s, 174.015 katom-step/s
98.8% CPU use with 8 MPI tasks x 1 OpenMP threads

MPI task timing breakdown:
Section |  min time  |  avg time  |  max time  |%varavg| %total
---------------------------------------------------------------
Pair    | 40.566     | 42.6       | 44.673     |  20.8 | 12.07
Kspace  | 271.37     | 273        | 275.59     |   7.9 | 77.32
Neigh   | 2.1897     | 2.2574     | 2.3095     |   3.1 |  0.64
Comm    | 31.342     | 32.246     | 34.118     |  14.9 |  9.13
Output  | 0.20066    | 0.20069    | 0.20078    |   0.0 |  0.06
Modify  | 1.9626     | 1.9746     | 1.9882     |   0.6 |  0.56
Other   |            | 0.7989     |            |       |  0.23

Nlocal:            768 ave         775 max         759 min
Histogram: 1 1 0 1 0 0 2 0 2 1
Nghost:           5871 ave        5879 max        5857 min
Histogram: 1 0 1 0 0 1 1 1 1 2
Neighs:         198076 ave      204061 max      191294 min
Histogram: 3 0 0 0 0 1 0 0 2 2

Total # of neighbors = 1584608
Ave neighs/atom = 257.91146
Neighbor list builds = 432
Dangerous builds = 0

# Unfix the previous fix to prepare for the next loop iteration
unfix 1

# Dump settings will be cleared with the unfix command, so we remove it
undump 1

# Next iteration
next temp
jump SELF loop_temperature

# Set velocities for initial temperature of ${temp} K
velocity all create ${temp} 87287 loop geom
velocity all create 2800 87287 loop geom

# Apply NPT ensemble with P = 1 atm, T = ${temp} K, timestep = 1.0 fs, temperature damping = 100 fs (100x timestep), pressure damping = 1000 fs (1000x timestep)
fix 1 all npt temp ${temp} ${temp} 100.0 iso 1.0 1.0 1000.0
fix 1 all npt temp 2800 ${temp} 100.0 iso 1.0 1.0 1000.0
fix 1 all npt temp 2800 2800 100.0 iso 1.0 1.0 1000.0
thermo 100
thermo_style custom step pe ke etotal temp press vol

# Output dump
dump 1 all custom 100 dump_${temp}K.lammpstrj id element x y z vx vy vz
dump 1 all custom 100 dump_2800K.lammpstrj id element x y z vx vy vz
dump_modify 1 element Ce O

# Run the simulation for 10000 steps
run 10000
Ewald initialization ...
  using 12-bit tables for long-range coulomb (src/kspace.cpp:342)
  G vector (1/distance) = 0.30844546
  estimated absolute RMS force accuracy = 0.035519285
  estimated relative force accuracy = 0.00010696527
  KSpace vectors: actual max1d max3d = 5756 14 12194
                  kxmax kymax kzmax  = 14 14 14
Generated 0 of 1 mixed pair_coeff terms from geometric mixing rule
Per MPI rank memory allocation (min/avg/max) = 29.01 | 29.01 | 29.01 Mbytes
   Step         PotEng         KinEng         TotEng          Temp          Press          Volume    
     40000  -4867172.8      51271.125     -4815901.6      2800           6427.6187      85715.066    
     40100  -4864325.6      49723.744     -4814601.8      2715.495       3630.3253      86091.126    
     40200  -4863475.7      50374.484     -4813101.2      2751.033      -7947.9404      86692.728    
     40300  -4862728.7      51254.861     -4811473.9      2799.1118     -4777.7121      86656.518    
     40400  -4862183.3      51742.353     -4810441        2825.7345      5116.7727      86284.405    
     40500  -4861909.6      51669.088     -4810240.5      2821.7334      3696.6411      86292.113    
     40600  -4862307.9      51103.879     -4811204        2790.8664     -1316.2111      86587.946    
     40700  -4862231.6      50458.143     -4811773.4      2755.6017     -4443.3384      86656.866    
     40800  -4862350.7      51032.962     -4811317.8      2786.9935      1626.7355      86360.076    
     40900  -4862709.2      52349.78      -4810359.4      2858.9071      5373.6653      86235.565    
     41000  -4861725.7      51788.065     -4809937.7      2828.2309     -946.56683      86540.315    
     41100  -4861667        51174.619     -4810492.4      2794.7296     -4412.288       86773.284    
     41200  -4862405.6      50965.435     -4811440.2      2783.3058      599.85932      86587.377    
     41300  -4863041.8      51228.061     -4811813.7      2797.6482      4950.4824      86358.116    
     41400  -4862966.6      51060.151     -4811906.5      2788.4784      1079.0552      86392.141    
     41500  -4862484.1      50998.704     -4811485.3      2785.1226      940.26405      86481.778    
     41600  -4862433.8      52138.306     -4810295.5      2847.3582     -2022.6808      86600.976    
     41700  -4861446.2      51267.896     -4810178.3      2799.8236     -1316.5956      86560.478    
     41800  -4862219.4      51222.481     -4810996.9      2797.3435      369.2455       86486.777    
     41900  -4862898.1      51004.123     -4811894        2785.4186     -424.63137      86497.391    
     42000  -4862580        50752.525     -4811827.5      2771.6784     -981.61326      86510.22     
     42100  -4862523.8      51004.594     -4811519.2      2785.4443     -972.13694      86470.367    
     42200  -4863054.4      52119.28      -4810935.1      2846.3191      852.44652      86446.185    
     42300  -4861515.2      51033.596     -4810481.6      2787.0281      1131.3009      86505.449    
     42400  -4862177.4      51754.622     -4810422.8      2826.4045     -550.9835       86605.115    
     42500  -4861839.3      50732         -4811107.3      2770.5575     -3295.1042      86591.9      
     42600  -4862816.7      50952.906     -4811863.8      2782.6215      4205.2508      86344.251    
     42700  -4863368.1      51284.039     -4812084        2800.7053      4438.2065      86293.022    
     42800  -4862605.7      51059.412     -4811546.3      2788.438      -671.10132      86465.092    
     42900  -4861935.2      51678.852     -4810256.4      2822.2666     -1639.0486      86600.529    
     43000  -4861964.7      51888.1       -4810076.6      2833.694      -966.2577       86600.029    
     43100  -4862482.1      51866.379     -4810615.7      2832.5078     -61.152726      86486.189    
     43200  -4862644.5      50890.838     -4811753.7      2779.2319     -836.21618      86364.653    
     43300  -4863349.4      51531.345     -4811818.1      2814.211       1181.9263      86333.666    
     43400  -4863005.8      51548.668     -4811457.1      2815.157      -492.24634      86439.941    
     43500  -4862553.4      51710.127     -4810843.3      2823.9746     -2915.3697      86628.275    
     43600  -4861707.6      51773         -4809934.6      2827.4082     -3730.4346      86632.012    
     43700  -4861398.8      51888.867     -4809509.9      2833.7359      1670.0374      86415.622    
     43800  -4862651        51591.401     -4811059.6      2817.4908     -743.84019      86402.341    
     43900  -4862709.7      50816.103     -4811893.6      2775.1505     -1667.8084      86520.431    
     44000  -4862593.8      50980.644     -4811613.1      2784.1363     -1674.7218      86558.829    
     44100  -4862955.1      52361.341     -4810593.8      2859.5385      383.52154      86416.504    
     44200  -4861918.8      51503.213     -4810415.6      2812.6747      2521.9636      86396.978    
     44300  -4862643.3      51487.441     -4811155.9      2811.8134     -2841.5374      86616.859    
     44400  -4862808.9      50735.539     -4812073.3      2770.7507     -7249.9432      86652.723    
     44500  -4863330.8      50091.31      -4813239.5      2735.5684      2397.3888      86248.523    
     44600  -4863457.9      49631.526     -4813826.4      2710.4588      6075.2312      86020.134    
     44700  -4862574.2      50010.825     -4812563.3      2731.1729      3701.5772      86256.902    
     44800  -4862545.9      51021.869     -4811524.1      2786.3877     -4854.0275      86696.973    
     44900  -4861797.8      51166.608     -4810631.2      2794.2921     -4601.9267      86735.56     
     45000  -4861511.5      51368.891     -4810142.6      2805.3391      3989.4853      86354.107    
     45100  -4862007.6      51240.902     -4810766.6      2798.3495      3442.9325      86333.222    
     45200  -4862565.3      50717.577     -4811847.8      2769.7698     -3791.6906      86612.136    
     45300  -4862505.6      50846.138     -4811659.5      2776.7908     -3117.6636      86610.222    
     45400  -4862670.6      51564.985     -4811105.7      2816.0482      4816.3842      86372.871    
     45500  -4862388.9      51608.022     -4810780.9      2818.3985      650.24631      86376.74     
     45600  -4861750.7      50739.067     -4811011.6      2770.9434     -1393.7644      86535.072    
     45700  -4863015.7      50527.545     -4812488.1      2759.3919     -4175.4561      86623.579    
     45800  -4863220.4      50597.19      -4812623.2      2763.1953     -507.87655      86437.215    
     45900  -4862738        51146.238     -4811591.7      2793.1797      7028.281       86195.116    
     46000  -4862294.2      51174.048     -4811120.1      2794.6985      1421.8088      86438.054    
     46100  -4861849.8      50969.833     -4810879.9      2783.546      -4374.376       86741.841    
     46200  -4861446        50969.453     -4810476.5      2783.5252     -2505.5608      86627.568    
     46300  -4862352        52125.436     -4810226.6      2846.6553      5372.4784      86188.138    
     46400  -4863203.4      51780.033     -4811423.4      2827.7923      5796.6445      86197.768    
     46500  -4862356.3      50047.104     -4812309.2      2733.1542     -4817.647       86696.944    
     46600  -4862216.6      50724.999     -4811491.6      2770.1751     -5201.7158      86837.542    
     46700  -4862356.6      51816.801     -4810539.8      2829.8002      1951.4185      86468.203    
     46800  -4862385        51938.456     -4810446.5      2836.444       5355.1552      86264.091    
     46900  -4862284.8      50832.607     -4811452.2      2776.0518     -980.29923      86484.825    
     47000  -4861705.6      49943.561     -4811762        2727.4995     -1662.6443      86661.105    
     47100  -4862517.2      51121.245     -4811396        2791.8148     -353.32031      86507.929    
     47200  -4862428.5      51213.508     -4811215        2796.8534      3087.1573      86308.276    
     47300  -4862348.7      51018.264     -4811330.5      2786.1908      3141.0471      86385.025    
     47400  -4862081.5      50717.595     -4811363.9      2769.7708     -3079.0187      86646.514    
     47500  -4861742.6      51074.557     -4810668        2789.2651     -1684.3603      86655.817    
     47600  -4861609.5      52138.143     -4809471.3      2847.3492      2013.3918      86475.938    
     47700  -4862182.4      52164.188     -4810018.2      2848.7716      414.91895      86446.657    
     47800  -4861656.3      50656.266     -4811000        2766.4215     -1252.3205      86539.449    
     47900  -4862091.3      50984.718     -4811106.6      2784.3588     -3506.1291      86552.84     
     48000  -4862563.6      51380.964     -4811182.7      2805.9985      2676.9329      86334.992    
     48100  -4862260.5      50747.719     -4811512.8      2771.416       1883.2678      86321.726    
     48200  -4862937.9      50521.72      -4812416.2      2759.0737     -1902.8065      86502.372    
     48300  -4863204.8      51007.307     -4812197.5      2785.5925     -1679.2323      86528.884    
     48400  -4862764.1      51866.37      -4810897.7      2832.5073     -655.9836       86401.038    
     48500  -4862312.2      51734.585     -4810577.6      2825.3103      913.99611      86426.012    
     48600  -4862458.9      51580.258     -4810878.6      2816.8823     -1629.2636      86557.524    
     48700  -4862672.9      51156.518     -4811516.3      2793.7411     -1895.1639      86522.83     
     48800  -4862746.2      50337.972     -4812408.2      2749.039       1510.7726      86327.089    
     48900  -4864042.8      50710.418     -4813332.4      2769.3789      298.58383      86275.408    
     49000  -4863700.1      51229.272     -4812470.8      2797.7143     -1168.2714      86470.91     
     49100  -4862471.4      51032.817     -4811438.6      2786.9856     -3536.1781      86616.056    
     49200  -4862586.4      51798.958     -4810787.4      2828.8258      2337.3823      86534.547    
     49300  -4861391        51012.579     -4810378.4      2785.8804      2531.8035      86472.582    
     49400  -4861915.1      51172.518     -4810742.6      2794.6149     -1837.6811      86510.433    
     49500  -4862905.1      51121.519     -4811783.6      2791.8298     -2822.3337      86540.452    
     49600  -4863359.7      50933.04      -4812426.6      2781.5366      2877.3052      86351.824    
     49700  -4862675.2      50712.623     -4811962.6      2769.4993      3359.377       86253.605    
     49800  -4862182.6      50703.929     -4811478.7      2769.0245      1707.9311      86389.362    
     49900  -4862236.1      50995.569     -4811240.5      2784.9514     -3576.2906      86680.501    
     50000  -4861249.5      50527.37      -4810722.2      2759.3823     -2177.7113      86743.736    
Loop time of 350.477 on 8 procs for 10000 steps with 6144 atoms

Performance: 2.465 ns/day, 9.735 hours/ns, 28.533 timesteps/s, 175.304 katom-step/s
99.0% CPU use with 8 MPI tasks x 1 OpenMP threads

MPI task timing breakdown:
Section |  min time  |  avg time  |  max time  |%varavg| %total
---------------------------------------------------------------
Pair    | 40.695     | 42.449     | 44.323     |  19.6 | 12.11
Kspace  | 269.03     | 271.55     | 273.99     |   8.0 | 77.48
Neigh   | 2.3065     | 2.3591     | 2.4382     |   3.2 |  0.67
Comm    | 29.973     | 31.409     | 33.005     |  17.8 |  8.96
Output  | 0.21717    | 0.21776    | 0.2183     |   0.1 |  0.06
Modify  | 1.7475     | 1.7612     | 1.7799     |   0.8 |  0.50
Other   |            | 0.7311     |            |       |  0.21

Nlocal:            768 ave         775 max         758 min
Histogram: 1 0 1 0 0 1 2 1 0 2
Nghost:           5861 ave        5874 max        5851 min
Histogram: 1 1 0 2 2 0 1 0 0 1
Neighs:         195456 ave      202842 max      186516 min
Histogram: 1 1 0 1 0 1 1 1 1 1

Total # of neighbors = 1563650
Ave neighs/atom = 254.50033
Neighbor list builds = 455
Dangerous builds = 0

# Unfix the previous fix to prepare for the next loop iteration
unfix 1

# Dump settings will be cleared with the unfix command, so we remove it
undump 1

# Next iteration
next temp
jump SELF loop_temperature

# Set velocities for initial temperature of ${temp} K
velocity all create ${temp} 87287 loop geom
velocity all create 3000 87287 loop geom

# Apply NPT ensemble with P = 1 atm, T = ${temp} K, timestep = 1.0 fs, temperature damping = 100 fs (100x timestep), pressure damping = 1000 fs (1000x timestep)
fix 1 all npt temp ${temp} ${temp} 100.0 iso 1.0 1.0 1000.0
fix 1 all npt temp 3000 ${temp} 100.0 iso 1.0 1.0 1000.0
fix 1 all npt temp 3000 3000 100.0 iso 1.0 1.0 1000.0
thermo 100
thermo_style custom step pe ke etotal temp press vol

# Output dump
dump 1 all custom 100 dump_${temp}K.lammpstrj id element x y z vx vy vz
dump 1 all custom 100 dump_3000K.lammpstrj id element x y z vx vy vz
dump_modify 1 element Ce O

# Run the simulation for 10000 steps
run 10000
Ewald initialization ...
  using 12-bit tables for long-range coulomb (src/kspace.cpp:342)
  G vector (1/distance) = 0.30834875
  estimated absolute RMS force accuracy = 0.035864084
  estimated relative force accuracy = 0.00010800362
  KSpace vectors: actual max1d max3d = 5756 14 12194
                  kxmax kymax kzmax  = 14 14 14
Generated 0 of 1 mixed pair_coeff terms from geometric mixing rule
Per MPI rank memory allocation (min/avg/max) = 29.01 | 29.01 | 29.01 Mbytes
   Step         PotEng         KinEng         TotEng          Temp          Press          Volume    
     50000  -4861249.6      54933.348     -4806316.3      3000           142.83029      86743.736    
     50100  -4859217.3      53972.732     -4805244.6      2947.5392     -594.04334      86822.966    
     50200  -4858466.4      54353.202     -4804113.2      2968.3172      1757.3522      86912.57     
     50300  -4858192.4      55265.101     -4802927.3      3018.1175     -134.6483       87023.6      
     50400  -4857096.3      54850.535     -4802245.7      2995.4774      1277.5263      87077.076    
     50500  -4857360        55316.723     -4802043.3      3020.9367     -908.72852      87045.425    
     50600  -4858305.2      55465.689     -4802839.5      3029.072      -796.70966      86940.343    
     50700  -4858818.9      54711.61      -4804107.3      2987.8905      1416.2461      86835.131    
     50800  -4858643.4      54557.954     -4804085.4      2979.4991      2574.9327      86819.845    
     50900  -4858531.9      55027.829     -4803504        3005.1598      2527.5704      86909.032    
     51000  -4857997.1      55149.117     -4802848        3011.7835     -3715.9214      87114.906    
     51100  -4857729.1      55101.65      -4802627.4      3009.1912     -1394.6855      87096.912    
     51200  -4857990.3      55356.572     -4802633.7      3023.1129      1434.2452      86917.391    
     51300  -4857907.5      54684.462     -4803223.1      2986.4079      3812.0526      86813.225    
     51400  -4858823.7      54749.572     -4804074.2      2989.9637     -1174.5285      86939.108    
     51500  -4858614.6      53200.187     -4805414.4      2905.3492     -1247.6414      86971.759    
     51600  -4859682        55149.816     -4804532.2      3011.8216      748.94461      86781.749    
     51700  -4858938.7      55215         -4803723.7      3015.3815      2355.4741      86720.582    
     51800  -4857871.9      54606.12      -4803265.8      2982.1295      46.426854      86977.836    
     51900  -4857383.9      55018.996     -4802364.9      3004.6773     -4615.5829      87245.055    
     52000  -4857532.5      55769.477     -4801763        3045.6624     -1349.2319      87130.004    
     52100  -4857891        55709.01      -4802182        3042.3601      147.97641      86881.611    
     52200  -4859029.2      54982.899     -4804046.3      3002.7061      1653.2097      86790.668    
     52300  -4859225.6      55242.44      -4803983.2      3016.88       -231.78036      86836.107    
     52400  -4857819.2      54724.602     -4803094.6      2988.6        -1378.21        86919.904    
     52500  -4857911.5      55619.14      -4802292.4      3037.4522     -1267.82        86958.451    
     52600  -4857299.3      54960.81      -4802338.5      3001.4997      1466.1754      86974.299    
     52700  -4857417.4      54083.008     -4803334.4      2953.5615     -3400.3372      87016.3      
     52800  -4858063.8      53490.091     -4804573.7      2921.1813      1813.2468      86860.98     
     52900  -4858806.2      54595.307     -4804210.9      2981.539       766.08879      86724.533    
     53000  -4858297.6      54654.158     -4803643.4      2984.753       2040.6684      86805.248    
     53100  -4858803.9      55770.157     -4803033.8      3045.6995     -4404.2993      87135.032    
     53200  -4857366.5      54814.423     -4802552.1      2993.5053     -5160.1921      87260.269    
     53300  -4857327.8      55108.154     -4802219.7      3009.5464      2095.1276      87014.051    
     53400  -4857095        54624.194     -4802470.8      2983.1166      3729.9394      86840.499    
     53500  -4858281        54865.456     -4803415.5      2996.2923      2794.686       86916.087    
     53600  -4857291.5      53701.719     -4803589.8      2932.7387     -4993.5021      87175.991    
     53700  -4857065.3      53884.331     -4803181        2942.7114     -2735.6583      87079.676    
     53800  -4857656.3      55143.132     -4802513.1      3011.4566      4720.9254      86776.878    
     53900  -4857797.2      55284.246     -4802513        3019.1631      3095.2283      86822.026    
     54000  -4857903.2      54242.627     -4803660.6      2962.2786     -4622.096       87122.083    
     54100  -4858627.6      54456.227     -4804171.4      2973.9436     -4338.5782      87163.85     
     54200  -4857870.5      54784.463     -4803086        2991.8691      1415.8767      86869.453    
     54300  -4857725.9      55177.105     -4802548.8      3013.3119      7878.2769      86717.218    
     54400  -4857878.6      55089.075     -4802789.5      3008.5045     -36.667158      87057.519    
     54500  -4857453.5      54464.889     -4802988.6      2974.4167     -4607.5514      87298.792    
     54600  -4857119.9      54821.908     -4802298        2993.914      -972.42952      87061.875    
     54700  -4857500.2      55941.04      -4801559.2      3055.0317      6281.8813      86697.347    
     54800  -4857329.3      54793.033     -4802536.3      2992.3372      3154.426       86797.187    
     54900  -4857750.6      54053.584     -4803697        2951.9546     -4091.3944      87131.377    
     55000  -4857785.6      54395.591     -4803390        2970.6322     -5068.8465      87190.17     
     55100  -4857483.3      55113.001     -4802370.3      3009.8111     -139.5543       86924.078    
     55200  -4857463.9      55166.464     -4802297.4      3012.7308      4962.4432      86761.801    
     55300  -4857859.7      54880.613     -4802979.1      2997.12       -1144.2544      86937.187    
     55400  -4858420.8      55285.644     -4803135.1      3019.2394     -4129.091       87061.4      
     55500  -4857619.5      54581.416     -4803038        2980.7804     -715.08948      86949.88     
     55600  -4858013        55356.523     -4802656.4      3023.1103      1667.0125      86843.119    
     55700  -4857848.1      55185.933     -4802662.2      3013.7941      2723.8932      86886.142    
     55800  -4857771.9      54236.836     -4803535.1      2961.9623     -2494.3136      87031.47     
     55900  -4859063.2      55099.191     -4803964.1      3009.0569     -3907.629       87018.699    
     56000  -4858407.3      55089.56      -4803317.7      3008.531       2150.438       86810.352    
     56100  -4857472.1      55249.083     -4802223        3017.2428      5971.2364      86766.709    
     56200  -4857656.5      55372.564     -4802283.9      3023.9863     -392.77976      87038.741    
     56300  -4857732        55052.382     -4802679.7      3006.5006     -4986.7605      87174.658    
     56400  -4857550.3      54764.383     -4802785.9      2990.7725      697.35183      86933.926    
     56500  -4858105.9      55157.39      -4802948.5      3012.2353      4628.6864      86744.87     
     56600  -4858774.2      55431.787     -4803342.4      3027.2206     -930.86696      86885.45     
     56700  -4858144.4      54463.528     -4803680.8      2974.3423     -4358.1656      87026.266    
     56800  -4857977.9      54710.291     -4803267.6      2987.8184      3424.0359      86897.409    
     56900  -4857524.7      55564.152     -4801960.5      3034.4492      1521.8412      86892.84     
     57000  -4856748.8      54531.557     -4802217.3      2978.0575      923.17299      87016.447    
     57100  -4857454.3      54417.079     -4803037.2      2971.8057     -2910.8727      87089.822    
     57200  -4859000.8      55357.794     -4803643        3023.1797     -1043.3075      86915.468    
     57300  -4858988.9      55063.692     -4803925.2      3007.1183      2216.1041      86762.553    
     57400  -4857936        54101.91      -4803834.1      2954.5938      2772.5874      86851.111    
     57500  -4857400.3      54504.843     -4802895.4      2976.5986     -187.90603      87026.007    
     57600  -4857296.4      55283.924     -4802012.5      3019.1455     -1032.2106      87107.297    
     57700  -4856849.6      54716.877     -4802132.7      2988.1781      3376.2531      87009.742    
     57800  -4857684        54493.32      -4803190.7      2975.9693      2542.8132      86899.317    
     57900  -4858346.9      54395.844     -4803951.1      2970.646      -2608.2106      86899.961    
     58000  -4858243.4      54494.234     -4803749.1      2976.0193      116.12098      86852.972    
     58100  -4858215.9      55101.67      -4803114.3      3009.1923     -2585.7945      86867.268    
     58200  -4858557        55858.961     -4802698        3050.5492      1662.4871      86894.397    
     58300  -4856555.9      53800.864     -4802755        2938.1532      36.73889       87061.489    
     58400  -4857565.6      55272.008     -4802293.6      3018.4948     -4951.0135      87137.683    
     58500  -4857323.8      55416.997     -4801906.8      3026.4128      3332.0428      86933.182    
     58600  -4857619        55273.134     -4802345.9      3018.5562      1246.1049      86876.596    
     58700  -4856701.4      53167.743     -4803533.6      2903.5774      1507.6738      86930.554    
     58800  -4857990.4      54141.326     -4803849        2956.7464     -2485.1398      86944.191    
     58900  -4857551        54252.442     -4803298.6      2962.8146      2450.621       86807.575    
     59000  -4857379.6      55423.431     -4801956.2      3026.7642      1958.6459      86827.822    
     59100  -4856863.3      55456.236     -4801407.1      3028.5558     -812.56924      87062.455    
     59200  -4857458        55610.736     -4801847.3      3036.9933     -4128.9725      87220.308    
     59300  -4858224.5      55979.152     -4802245.4      3057.1131     -4275.0892      87069.01     
     59400  -4858599.1      55461.519     -4803137.6      3028.8443      4969.9368      86733.264    
     59500  -4858941.2      54869.75      -4804071.5      2996.5268      3163.5295      86742.585    
     59600  -4858957.4      54887.8       -4804069.6      2997.5125     -3628.0587      87001.088    
     59700  -4857159        54415.865     -4802743.1      2971.7394      1.0922433      87148.51     
     59800  -4857821.4      55653.034     -4802168.4      3039.3032     -1992.5479      87069.351    
     59900  -4858170.5      55482.052     -4802688.4      3029.9656      2183.8632      86864.907    
     60000  -4858590.7      55062.027     -4803528.7      3007.0273      2710.542       86819.129    
Loop time of 354.743 on 8 procs for 10000 steps with 6144 atoms

Performance: 2.436 ns/day, 9.854 hours/ns, 28.189 timesteps/s, 173.196 katom-step/s
98.8% CPU use with 8 MPI tasks x 1 OpenMP threads

MPI task timing breakdown:
Section |  min time  |  avg time  |  max time  |%varavg| %total
---------------------------------------------------------------
Pair    | 40.544     | 42.375     | 45.46      |  22.6 | 11.95
Kspace  | 271.33     | 273.65     | 275.68     |   8.2 | 77.14
Neigh   | 2.3532     | 2.4702     | 2.5907     |   5.4 |  0.70
Comm    | 31.957     | 33.236     | 34.967     |  15.8 |  9.37
Output  | 0.20577    | 0.20621    | 0.20649    |   0.1 |  0.06
Modify  | 1.9686     | 1.9918     | 2.0028     |   0.8 |  0.56
Other   |            | 0.817      |            |       |  0.23

Nlocal:            768 ave         776 max         759 min
Histogram: 1 1 0 1 1 1 0 0 2 1
Nghost:        5859.75 ave        5866 max        5854 min
Histogram: 1 1 0 2 1 0 0 1 1 1
Neighs:         195344 ave      202181 max      190987 min
Histogram: 3 0 1 0 1 1 0 0 1 1

Total # of neighbors = 1562749
Ave neighs/atom = 254.35368
Neighbor list builds = 476
Dangerous builds = 0

# Unfix the previous fix to prepare for the next loop iteration
unfix 1

# Dump settings will be cleared with the unfix command, so we remove it
undump 1

# Next iteration
next temp
jump SELF loop_temperature

# Set velocities for initial temperature of ${temp} K
velocity all create ${temp} 87287 loop geom
velocity all create 3200 87287 loop geom

# Apply NPT ensemble with P = 1 atm, T = ${temp} K, timestep = 1.0 fs, temperature damping = 100 fs (100x timestep), pressure damping = 1000 fs (1000x timestep)
fix 1 all npt temp ${temp} ${temp} 100.0 iso 1.0 1.0 1000.0
fix 1 all npt temp 3200 ${temp} 100.0 iso 1.0 1.0 1000.0
fix 1 all npt temp 3200 3200 100.0 iso 1.0 1.0 1000.0
thermo 100
thermo_style custom step pe ke etotal temp press vol

# Output dump
dump 1 all custom 100 dump_${temp}K.lammpstrj id element x y z vx vy vz
dump 1 all custom 100 dump_3200K.lammpstrj id element x y z vx vy vz
dump_modify 1 element Ce O

# Run the simulation for 10000 steps
run 10000
Ewald initialization ...
  using 12-bit tables for long-range coulomb (src/kspace.cpp:342)
  G vector (1/distance) = 0.30834171
  estimated absolute RMS force accuracy = 0.035890935
  estimated relative force accuracy = 0.00010808448
  KSpace vectors: actual max1d max3d = 5756 14 12194
                  kxmax kymax kzmax  = 14 14 14
Generated 0 of 1 mixed pair_coeff terms from geometric mixing rule
Per MPI rank memory allocation (min/avg/max) = 29.01 | 29.01 | 29.01 Mbytes
   Step         PotEng         KinEng         TotEng          Temp          Press          Volume    
     60000  -4858590.8      58595.572     -4799995.2      3200           4570.9402      86819.129    
     60100  -4856083.6      57493.727     -4798589.9      3139.8265      1307.2579      87075.47     
     60200  -4855205.1      58167.391     -4797037.7      3176.6164     -6065.6407      87521.999    
     60300  -4852681.7      57465.257     -4795216.5      3138.2717     -3390.68        87646.222    
     60400  -4852438.7      58498.866     -4793939.9      3194.7187      2668.4305      87520.848    
     60500  -4853377.7      59793.505     -4793584.2      3265.4211      2488.5279      87378.475    
     60600  -4853835.9      59332.665     -4794503.2      3240.2539     -32.756575      87422.438    
     60700  -4853431.9      57972.851     -4795459.1      3165.9922      615.34208      87475.663    
     60800  -4853630.5      58300.534     -4795330        3183.8875     -1252.2806      87453.382    
     60900  -4853663.6      59574.98      -4794088.6      3253.4871     -711.97961      87378.891    
     61000  -4852142.5      58702.355     -4793440.2      3205.8316      3549.5249      87400.261    
     61100  -4852699.8      58869.804     -4793830        3214.9763      1964.3175      87541.685    
     61200  -4852588.5      58324.325     -4794264.1      3185.1868     -2789.8606      87658.526    
     61300  -4853258.7      58755.361     -4794503.3      3208.7264     -578.57206      87537.621    
     61400  -4853886        58943.193     -4794942.8      3218.9842      2211.9799      87304.046    
     61500  -4854089.2      57834.385     -4796254.8      3158.4303      140.96196      87315.855    
     61600  -4853945.7      57094.283     -4796851.4      3118.0122      790.36777      87336.938    
     61700  -4854689.5      59147.725     -4795541.7      3230.154       2379.9023      87334.999    
     61800  -4853277.6      58506.706     -4794770.9      3195.1469      1047.9896      87493.634    
     61900  -4853553.4      59206.9       -4794346.5      3233.3856     -1668.1461      87556.66     
     62000  -4852008.5      57911.365     -4794097.2      3162.6344      1357.547       87458.422    
     62100  -4853335.4      59252.591     -4794082.8      3235.8809     -208.35797      87392.45     
     62200  -4853568.1      58511.504     -4795056.6      3195.4089      1576.4029      87400.958    
     62300  -4853732        57798.818     -4795933.2      3156.488      -1959.0504      87473.989    
     62400  -4853809.3      58245.835     -4795563.4      3180.9003      904.14645      87417.807    
     62500  -4852560.2      58503.695     -4794056.5      3194.9825     -532.73365      87381.72     
     62600  -4852847.8      59127.697     -4793720.1      3229.0603      576.92192      87449.916    
     62700  -4853355.2      59200.125     -4794155.1      3233.0157     -2964.3833      87593.863    
     62800  -4852906        58109.515     -4794796.5      3173.4556     -2385.0928      87586.961    
     62900  -4853433.1      58541.148     -4794892        3197.0278     -593.71403      87474.229    
     63000  -4853095.5      59362.37      -4793733.1      3241.8761      3234.1376      87374.434    
     63100  -4852038.2      59023.354     -4793014.8      3223.3619      1648.1224      87501.366    
     63200  -4852003.5      57938.266     -4794065.2      3164.1035     -1846.3039      87734.31     
     63300  -4852834.1      58398.881     -4794435.2      3189.2584     -3979.3286      87725.16     
     63400  -4854152.7      59965.365     -4794187.4      3274.8066      4246.679       87364.724    
     63500  -4853915.5      59547.771     -4794367.7      3252.0011      3413.1204      87276.827    
     63600  -4854927.1      58599.99      -4796327.1      3200.2413     -2452.4016      87488.485    
     63700  -4854400.3      58159.346     -4796240.9      3176.177      -4746.7923      87562.117    
     63800  -4853251.5      58417.586     -4794834        3190.2799      1419.4668      87388.942    
     63900  -4853455.5      59313.431     -4794142        3239.2035      2585.1031      87314.564    
     64000  -4853001.3      59018.961     -4793982.4      3223.122      -1662.9992      87499.574    
     64100  -4852952.6      59141.519     -4793811.1      3229.8151     -3466.3269      87694.097    
     64200  -4852696.1      59492.578     -4793203.5      3248.987      -1835.6078      87603.371    
     64300  -4851996.4      59123.856     -4792872.6      3228.8505      3377.3002      87428.651    
     64400  -4852793.7      58856.409     -4793937.3      3214.2448      165.43247      87457.991    
     64500  -4853070.9      58168.411     -4794902.4      3176.6721     -1565.4946      87544.451    
     64600  -4853274.5      58446.543     -4794828        3191.8613      935.76222      87587.83     
     64700  -4852583.9      58733.458     -4793850.4      3207.5302     -2625.0428      87624.894    
     64800  -4852417.9      59554.642     -4792863.3      3252.3764     -2378.1104      87568.127    
     64900  -4852469.5      59298.535     -4793171        3238.39        1810.3828      87515.245    
     65000  -4851628.4      57729.798     -4793898.6      3152.7187     -1113.6953      87520.859    
     65100  -4854117.9      59466.723     -4794651.2      3247.575       138.91681      87463.338    
     65200  -4853557        58657.343     -4794899.6      3203.3734      557.31182      87512.877    
     65300  -4852967.9      58887.039     -4794080.9      3215.9175     -2341.8338      87583.462    
     65400  -4852186.8      59662.937     -4792523.9      3258.2906     -160.58882      87571.292    
     65500  -4851752.4      58936.432     -4792816        3218.6149     -590.63996      87589.307    
     65600  -4851827.2      57942.939     -4793884.3      3164.3587     -117.84762      87590.303    
     65700  -4852995        58673.108     -4794321.8      3204.2344     -315.07661      87466.381    
     65800  -4853337        58925.371     -4794411.6      3218.0109      4018.5976      87369.291    
     65900  -4853109        58657.412     -4794451.6      3203.3772     -664.81907      87471.722    
     66000  -4852179.4      57708.29      -4794471.1      3151.5441      1285.8227      87547.801    
     66100  -4852977.3      59203.981     -4793773.3      3233.2262     -2512.8755      87619.532    
     66200  -4852582.6      59292.009     -4793290.6      3238.0336      1084.0242      87535.351    
     66300  -4852363.3      59023.755     -4793339.6      3223.3838      2352.3783      87517.426    
     66400  -4852205.2      57729.547     -4794475.6      3152.705      -4574.2934      87685.457    
     66500  -4852845.2      57655.403     -4795189.8      3148.6558     -3666.3843      87634.661    
     66600  -4853056.2      58257.461     -4794798.7      3181.5352      2162.711       87296.74     
     66700  -4852322.6      59017.645     -4793304.9      3223.0501      8085.3525      87145.869    
     66800  -4851575.9      59115.56      -4792460.3      3228.3974      117.40931      87545.598    
     66900  -4851459.5      58441.828     -4793017.6      3191.6038     -8360.1154      88001.674    
     67000  -4851819.5      58100.143     -4793719.4      3172.9438     -4686.2157      87845.277    
     67100  -4853285.1      59044.784     -4794240.3      3224.5322      2531.2668      87286.561    
     67200  -4854015.8      57759.146     -4796256.6      3154.3214      5340.016       87049.421    
     67300  -4853634.5      57307.358     -4796327.2      3129.6486      515.38044      87317.269    
     67400  -4852744.3      57629.869     -4795114.5      3147.2614     -1899.9872      87567.631    
     67500  -4852990        58990.792     -4793999.2      3221.5836     -1974.9912      87599.265    
     67600  -4851720.1      57973.015     -4793747.1      3166.0011      2432.8463      87465.629    
     67700  -4852632.1      58619.85      -4794012.3      3201.3259     -342.28198      87425.731    
     67800  -4853008.4      57771.449     -4795236.9      3154.9933      1602.7379      87440.599    
     67900  -4853893.4      57976.6       -4795916.8      3166.197      -1088.7668      87447.536    
     68000  -4853126        58077.373     -4795048.7      3171.7003      38.941124      87383.214    
     68100  -4852928.5      59147.661     -4793780.9      3230.1505      3066.1961      87424.829    
     68200  -4853254.6      59324.799     -4793929.8      3239.8243     -2686.5363      87612.664    
     68300  -4852904        58394.982     -4794509        3189.0455     -4666.7811      87569.858    
     68400  -4852453.2      57580.291     -4794873        3144.5538      3271.2442      87345.119    
     68500  -4853476.6      58698.876     -4794777.7      3205.6416      1858.3528      87332.975    
     68600  -4853289        59059.148     -4794229.9      3225.3167      747.43937      87484.351    
     68700  -4852154.2      58943.681     -4793210.5      3219.0108     -4538.8978      87700.475    
     68800  -4852297.1      59575.322     -4792721.7      3253.5058     -2858.2701      87635.489    
     68900  -4852427.3      58550.814     -4793876.5      3197.5557     -1063.5253      87409.3      
     69000  -4853045.4      58197.62      -4794847.7      3178.2672      3959.8446      87298.426    
     69100  -4854091.5      59063.056     -4795028.5      3225.5301     -70.242056      87456.998    
     69200  -4853155        58725.906     -4794429.1      3207.1178     -3851.2317      87654.554    
     69300  -4852199.9      58924.279     -4793275.7      3217.9512     -1200.292       87646.11     
     69400  -4852090.6      59135.332     -4792955.3      3229.4772     -1056.5052      87551.372    
     69500  -4853103.2      59602.297     -4793500.9      3254.9789     -15.20191       87450.446    
     69600  -4852822.8      58683.514     -4794139.3      3204.8027      573.27786      87429.139    
     69700  -4853017.3      58264.351     -4794753        3181.9115     -178.59006      87495.612    
     69800  -4852712.4      57919.374     -4794793        3163.0718     -1150.4041      87462.418    
     69900  -4852912        58931.809     -4793980.2      3218.3625      1358.6372      87380.234    
     70000  -4852465.7      59786.952     -4792678.7      3265.0632      1991.8416      87465.964    
Loop time of 350.428 on 8 procs for 10000 steps with 6144 atoms

Performance: 2.466 ns/day, 9.734 hours/ns, 28.537 timesteps/s, 175.329 katom-step/s
98.9% CPU use with 8 MPI tasks x 1 OpenMP threads

MPI task timing breakdown:
Section |  min time  |  avg time  |  max time  |%varavg| %total
---------------------------------------------------------------
Pair    | 40.345     | 42.15      | 43.86      |  19.4 | 12.03
Kspace  | 269.51     | 271.62     | 273.46     |   6.9 | 77.51
Neigh   | 2.5041     | 2.5891     | 2.7184     |   4.3 |  0.74
Comm    | 29.546     | 31.043     | 32.423     |  15.5 |  8.86
Output  | 0.21027    | 0.21036    | 0.21048    |   0.0 |  0.06
Modify  | 1.9678     | 2.0098     | 2.0316     |   1.7 |  0.57
Other   |            | 0.8007     |            |       |  0.23

Nlocal:            768 ave         778 max         756 min
Histogram: 1 1 0 0 1 1 1 1 1 1
Nghost:        5865.75 ave        5879 max        5855 min
Histogram: 2 0 0 3 0 1 0 0 0 2
Neighs:         193760 ave      201893 max      182962 min
Histogram: 1 0 2 0 0 1 0 2 0 2

Total # of neighbors = 1550082
Ave neighs/atom = 252.29199
Neighbor list builds = 497
Dangerous builds = 0

# Unfix the previous fix to prepare for the next loop iteration
unfix 1

# Dump settings will be cleared with the unfix command, so we remove it
undump 1

# Next iteration
next temp
jump SELF loop_temperature

# Set velocities for initial temperature of ${temp} K
velocity all create ${temp} 87287 loop geom
velocity all create 3400 87287 loop geom

# Apply NPT ensemble with P = 1 atm, T = ${temp} K, timestep = 1.0 fs, temperature damping = 100 fs (100x timestep), pressure damping = 1000 fs (1000x timestep)
fix 1 all npt temp ${temp} ${temp} 100.0 iso 1.0 1.0 1000.0
fix 1 all npt temp 3400 ${temp} 100.0 iso 1.0 1.0 1000.0
fix 1 all npt temp 3400 3400 100.0 iso 1.0 1.0 1000.0
thermo 100
thermo_style custom step pe ke etotal temp press vol

# Output dump
dump 1 all custom 100 dump_${temp}K.lammpstrj id element x y z vx vy vz
dump 1 all custom 100 dump_3400K.lammpstrj id element x y z vx vy vz
dump_modify 1 element Ce O

# Run the simulation for 10000 steps
run 10000
Ewald initialization ...
  using 12-bit tables for long-range coulomb (src/kspace.cpp:342)
  G vector (1/distance) = 0.30828152
  estimated absolute RMS force accuracy = 0.036130584
  estimated relative force accuracy = 0.00010880618
  KSpace vectors: actual max1d max3d = 5756 14 12194
                  kxmax kymax kzmax  = 14 14 14
Generated 0 of 1 mixed pair_coeff terms from geometric mixing rule
Per MPI rank memory allocation (min/avg/max) = 29.01 | 29.01 | 29.01 Mbytes
   Step         PotEng         KinEng         TotEng          Temp          Press          Volume    
     70000  -4852465.7      62257.795     -4790207.9      3400           3282.4753      87465.964    
     70100  -4849501.6      60485.154     -4789016.5      3303.1932      3578.5535      87634.682    
     70200  -4848896        61333.449     -4787562.6      3349.5199     -2321.3006      88043.923    
     70300  -4847959.7      61809.789     -4786149.9      3375.5336     -3601.0832      88267.51     
     70400  -4848044.5      63074.342     -4784970.1      3444.593      -4162.4746      88164.341    
     70500  -4848360.6      63706.799     -4784653.8      3479.1325      1565.7811      87898.351    
     70600  -4848244.2      62388.674     -4785855.6      3407.1475      3582.4         87859.135    
     70700  -4848383.1      61602.75      -4786780.4      3364.2269     -891.44469      88006.879    
     70800  -4848765.4      62092.081     -4786673.3      3390.9501     -178.19574      87983.428    
     70900  -4847965.3      61836.152     -4786129.1      3376.9734      2522.6164      87861.267    
     71000  -4848493.3      63160.274     -4785333        3449.2859      4335.8099      87913.957    
     71100  -4847692.8      63813.286     -4783879.6      3484.9479     -2038.4887      88200.366    
     71200  -4847151.8      62947.519     -4784204.2      3437.667      -4652.6686      88367.31     
     71300  -4846941.5      61422.237     -4785519.3      3354.3688     -2423.6642      88202.207    
     71400  -4848397.5      62214.235     -4786183.2      3397.6211      4419.1334      87786.372    
     71500  -4848910.5      62430.779     -4786479.8      3409.447       2606.7139      87641.567    
     71600  -4849185.2      62553.125     -4786632        3416.1285      1610.5831      87863.5      
     71700  -4847791.7      61527.716     -4786263.9      3360.1292     -2605.8975      88153.502    
     71800  -4847428.4      62618.413     -4784810        3419.6939     -789.39911      88149.756    
     71900  -4847463.5      63591.981     -4783871.5      3472.8621     -359.4089       88056.925    
     72000  -4848192.4      63567.882     -4784624.5      3471.546       1468.0563      87947.714    
     72100  -4847870.5      62287.551     -4785583        3401.625      -1321.9836      87994.94     
     72200  -4849363        62972.813     -4786390.2      3439.0483     -2254.4053      88071.066    
     72300  -4848627.4      62142.56      -4786484.8      3393.7068      250.90329      88048.974    
     72400  -4847924.1      62511.295     -4785412.8      3413.8441     -2111.9767      88001.596    
     72500  -4847393.6      63356.66      -4784037        3460.0108      3637.0292      87971.867    
     72600  -4847926.8      63444.069     -4784482.8      3464.7844     -4182.0228      88151.477    
     72700  -4847918.2      61685.642     -4786232.6      3368.7538     -1913.247       88135.777    
     72800  -4848757.2      62469.005     -4786288.2      3411.5345     -2074.4599      87945.738    
     72900  -4848488.7      62401.073     -4786087.7      3407.8246      3018.5644      87802.026    
     73000  -4848614.1      62679.383     -4785934.7      3423.0236      2759.3544      87879.769    
     73100  -4848917.1      62962.032     -4785955        3438.4596     -2080.142       88124.89     
     73200  -4847734.8      61440.89      -4786293.9      3355.3875     -4456.8327      88193.048    
     73300  -4848130.3      61960.528     -4786169.7      3383.7658     -731.6286       87948.81     
     73400  -4847542.3      61768.158     -4785774.2      3373.2601      4850.4934      87740.236    
     73500  -4849523.2      63919.338     -4785603.8      3490.7396      1442.1107      87844.719    
     73600  -4847805.3      61225.175     -4786580.1      3343.6069     -1908.6975      88097.939    
     73700  -4848794.1      61624.897     -4787169.2      3365.4364     -6629.2801      88228.789    
     73800  -4848790.9      62619.965     -4786170.9      3419.7787      534.06377      87995.675    
     73900  -4847987.9      63034.001     -4784953.9      3442.3899      6318.9989      87771.326    
     74000  -4847556.5      62294.175     -4785262.4      3401.9868      1126.9115      87960.012    
     74100  -4847599.7      61983.942     -4785615.7      3385.0445     -4745.6317      88290.945    
     74200  -4847321.5      61495.689     -4785825.8      3358.3802     -5602.9578      88246.578    
     74300  -4847533.4      61735.341     -4785798        3371.4679      4943.5583      87942.882    
     74400  -4847734.6      61893.08      -4785841.5      3380.0823      5014.2186      87860.82     
     74500  -4849118.5      62997.252     -4786121.3      3440.383       1051.1666      88013.883    
     74600  -4848172.6      61882.227     -4786290.4      3379.4896     -3280.3139      88170.954    
     74700  -4848552.6      62797.148     -4785755.4      3429.4549     -3427.9617      88113.071    
     74800  -4848266.4      63450.291     -4784816.1      3465.1242      1535.075       87852.296    
     74900  -4846601.7      62266.357     -4784335.4      3400.4676      3969.5283      87829.319    
     75000  -4848303.3      62385.252     -4785918        3406.9607     -26.501007      88112.426    
     75100  -4848700.5      62058.011     -4786642.5      3389.0895     -6419.986       88238.757    
     75200  -4848386.5      62073.391     -4786313.1      3389.9294     -804.17227      88011.372    
     75300  -4848191.5      62739.028     -4785452.5      3426.2809      4097.6479      87808.981    
     75400  -4847350.9      62965.951     -4784384.9      3438.6736      3171.9019      87893.584    
     75500  -4846738        62677.413     -4784060.6      3422.916       801.24142      88157.82     
     75600  -4847089.7      61703.142     -4785386.6      3369.7095     -5037.218       88279.062    
     75700  -4848957.2      62652.166     -4786305.1      3421.5372     -2929.0655      88030.716    
     75800  -4848455.5      61573.729     -4786881.8      3362.642       5343.9775      87743.875    
     75900  -4848452        61498.23      -4786953.8      3358.5189      2203.4892      87827.947    
     76000  -4848435.7      62172.305     -4786263.4      3395.3312      1134.3693      88036.514    
     76100  -4847801        62798.429     -4785002.6      3429.5249     -4365.2307      88178.567    
     76200  -4846958.3      62156.047     -4784802.3      3394.4434      2103.4107      88124.447    
     76300  -4847928.5      62384.848     -4785543.6      3406.9386     -858.16379      88077.352    
     76400  -4848780.6      61583.969     -4787196.6      3363.2013     -3690.9877      88024.052    
     76500  -4849189.4      61746.023     -4787443.4      3372.0513      795.2157       87854.913    
     76600  -4848764.1      61853.354     -4786910.7      3377.9128      5357.0972      87757.658    
     76700  -4848537.6      62522.374     -4786015.2      3414.4491      389.57025      87962.402    
     76800  -4847132.7      61597.851     -4785534.8      3363.9594     -1880.1187      88140.262    
     76900  -4848096.2      62629.755     -4785466.5      3420.3134     -973.4144       88130.746    
     77000  -4847889.4      62153.56      -4785735.8      3394.3075      1312.2994      88009.712    
     77100  -4848110.6      61705.454     -4786405.1      3369.8358      3206.8308      87950.998    
     77200  -4848469.1      61450.697     -4787018.4      3355.9231     -2261.3933      87974.997    
     77300  -4849143.3      61156.651     -4787986.6      3339.8647      2134.3566      87935.032    
     77400  -4849883.3      62094.304     -4787789        3391.0715     -1655.6974      87934.275    
     77500  -4849236.2      63241.53      -4785994.7      3453.7234     -452.24435      87892.126    
     77600  -4848011.2      62418.586     -4785592.6      3408.781       3723.3939      87853.928    
     77700  -4848339.7      62663.002     -4785676.7      3422.129       478.83763      87993.05     
     77800  -4848859.7      61975.837     -4786883.9      3384.6018     -2769.7965      88089.663    
     77900  -4849199.7      61824.776     -4787374.9      3376.3522     -3429.6908      87998.47     
     78000  -4848953.4      62638.198     -4786315.2      3420.7744      3068.859       87778.195    
     78100  -4848698.8      63927.299     -4784771.5      3491.1743      4960.3849      87770.421    
     78200  -4848055.2      62574.093     -4785481.1      3417.2735     -1090.8982      88120.186    
     78300  -4847878.2      61525.515     -4786352.7      3360.009      -5485.0247      88356.271    
     78400  -4847892.2      61576.094     -4786316.1      3362.7712     -3150.776       88159.919    
     78500  -4847940.1      63309.59      -4784630.5      3457.4403      6322.3441      87839.155    
     78600  -4847374.3      63176.115     -4784198.2      3450.151       5880.8683      87878.319    
     78700  -4846227        61213.657     -4785013.3      3342.9779      16.056689      88255.787    
     78800  -4847730.9      62532.965     -4785198        3415.0275     -6603.0404      88418.469    
     78900  -4847592.3      62457.086     -4785135.2      3410.8836     -2484.5696      88135.998    
     79000  -4847396.9      62066.76      -4785330.1      3389.5673      5564.4952      87764.965    
     79100  -4847725.3      60703.96      -4787021.3      3315.1425      4190.493       87747.688    
     79200  -4849404.9      62216.04      -4787188.9      3397.7197     -1526.6059      87996.554    
     79300  -4848503.8      62565.77      -4785938        3416.819      -5259.9691      88159.24     
     79400  -4847500.5      62427.352     -4785073.1      3409.2598      1170.0611      88018.158    
     79500  -4847941.4      62908.339     -4785033.1      3435.5273      2227.6179      87881.934    
     79600  -4848640.8      62862.929     -4785777.8      3433.0474     -9.2196566      87997.484    
     79700  -4848883.7      61677.556     -4787206.1      3368.3122     -2349.5556      88161.796    
     79800  -4848285.1      61335.47      -4786949.6      3349.6303     -4599.3688      88118.362    
     79900  -4847116.5      62155.747     -4784960.7      3394.427       4818.8025      87894.601    
     80000  -4847274.7      62161.924     -4785112.8      3394.7644      987.45213      87936.858    
Loop time of 352.009 on 8 procs for 10000 steps with 6144 atoms

Performance: 2.454 ns/day, 9.778 hours/ns, 28.408 timesteps/s, 174.541 katom-step/s
99.0% CPU use with 8 MPI tasks x 1 OpenMP threads

MPI task timing breakdown:
Section |  min time  |  avg time  |  max time  |%varavg| %total
---------------------------------------------------------------
Pair    | 39.827     | 42.218     | 44.835     |  25.5 | 11.99
Kspace  | 269.96     | 272.04     | 273.62     |   8.3 | 77.28
Neigh   | 2.6346     | 2.7108     | 2.8064     |   3.8 |  0.77
Comm    | 30.354     | 32.217     | 33.866     |  19.4 |  9.15
Output  | 0.21434    | 0.21437    | 0.21445    |   0.0 |  0.06
Modify  | 1.8047     | 1.82       | 1.8337     |   0.7 |  0.52
Other   |            | 0.7859     |            |       |  0.22

Nlocal:            768 ave         781 max         751 min
Histogram: 1 0 0 1 2 0 1 1 0 2
Nghost:        5861.75 ave        5882 max        5845 min
Histogram: 1 0 2 2 0 0 0 2 0 1
Neighs:         192643 ave      200645 max      183708 min
Histogram: 1 0 2 0 1 1 0 1 0 2

Total # of neighbors = 1541141
Ave neighs/atom = 250.83675
Neighbor list builds = 516
Dangerous builds = 0

# Unfix the previous fix to prepare for the next loop iteration
unfix 1

# Dump settings will be cleared with the unfix command, so we remove it
undump 1

# Next iteration
next temp
jump SELF loop_temperature

# Set velocities for initial temperature of ${temp} K
velocity all create ${temp} 87287 loop geom
velocity all create 3600 87287 loop geom

# Apply NPT ensemble with P = 1 atm, T = ${temp} K, timestep = 1.0 fs, temperature damping = 100 fs (100x timestep), pressure damping = 1000 fs (1000x timestep)
fix 1 all npt temp ${temp} ${temp} 100.0 iso 1.0 1.0 1000.0
fix 1 all npt temp 3600 ${temp} 100.0 iso 1.0 1.0 1000.0
fix 1 all npt temp 3600 3600 100.0 iso 1.0 1.0 1000.0
thermo 100
thermo_style custom step pe ke etotal temp press vol

# Output dump
dump 1 all custom 100 dump_${temp}K.lammpstrj id element x y z vx vy vz
dump 1 all custom 100 dump_3600K.lammpstrj id element x y z vx vy vz
dump_modify 1 element Ce O

# Run the simulation for 10000 steps
run 10000
Ewald initialization ...
  using 12-bit tables for long-range coulomb (src/kspace.cpp:342)
  G vector (1/distance) = 0.30823798
  estimated absolute RMS force accuracy = 0.036315829
  estimated relative force accuracy = 0.00010936404
  KSpace vectors: actual max1d max3d = 5756 14 12194
                  kxmax kymax kzmax  = 14 14 14
Generated 0 of 1 mixed pair_coeff terms from geometric mixing rule
Per MPI rank memory allocation (min/avg/max) = 29.01 | 29.01 | 29.01 Mbytes
   Step         PotEng         KinEng         TotEng          Temp          Press          Volume    
     80000  -4847274.7      65920.018     -4781354.7      3600           2940.5629      87936.858    
     80100  -4845132.7      64845.673     -4780287.1      3541.3283      5223.6926      88134.368    
     80200  -4844145        65315.715     -4778829.3      3566.998      -3772.0817      88629.612    
     80300  -4842516.8      65037.307     -4777479.5      3551.7937     -6891.7108      88873.474    
     80400  -4842430.1      66352.827     -4776077.3      3623.6364      236.83519      88634.382    
     80500  -4842081.3      66172.668     -4775908.6      3613.7976      5580.0191      88346.676    
     80600  -4843502.5      66341.738     -4777160.7      3623.0308      3449.7256      88365.764    
     80700  -4843679.6      65577.724     -4778101.8      3581.3068     -1933.0519      88572.57     
     80800  -4842263.3      64522.779     -4777740.5      3523.6945     -79.427071      88647.905    
     80900  -4842801.4      66030.443     -4776771        3606.0305     -2916.9463      88614.818    
     81000  -4842802.2      66262.811     -4776539.4      3618.7205      2101.5727      88438.485    
     81100  -4842503.1      65901.57      -4776601.5      3598.9925      2124.28        88421.733    
     81200  -4842150.7      64599.743     -4777551        3527.8976     -995.11939      88611.771    
     81300  -4843574.3      64504.99      -4779069.3      3522.723      -697.43529      88660.562    
     81400  -4843860.2      65522.619     -4778337.6      3578.2974     -2591           88546.732    
     81500  -4843388.5      66107.863     -4777280.6      3610.2585      248.18448      88356.025    
     81600  -4843107        65922.275     -4777184.8      3600.1233      3524.5537      88347.585    
     81700  -4842747        65364.91      -4777382.1      3569.6846     -1734.4096      88547.671    
     81800  -4843128.4      65633.182     -4777495.3      3584.3354     -2120.1736      88634.959    
     81900  -4842836.7      65529.429     -4777307.3      3578.6693     -262.71962      88531.864    
     82000  -4842977.2      66768.034     -4776209.1      3646.3115      825.18764      88460.76     
     82100  -4843138.4      67192.865     -4775945.6      3669.5122      861.1209       88537.227    
     82200  -4842752.2      65845.307     -4776906.9      3595.9199     -2670.6394      88672.716    
     82300  -4843300.2      65023.476     -4778276.7      3551.0383     -4586.4122      88588.926    
     82400  -4844166.7      65619.864     -4778546.8      3583.6081      1930.508       88270.14     
     82500  -4843484.7      66874.884     -4776609.8      3652.1468      7442.0488      88187.671    
     82600  -4842078.4      66285.495     -4775792.9      3619.9593      1776.8569      88491.819    
     82700  -4841961.7      65647.529     -4776314.2      3585.1189     -6810.1221      88772.485    
     82800  -4843410.6      66462.697     -4776947.9      3629.6366     -6826.11        88707.308    
     82900  -4843822.7      66149.705     -4777673        3612.5436      1004.3272      88397.395    
     83000  -4843663.4      64906.184     -4778757.3      3544.6329      4315.5181      88285.135    
     83100  -4843418.2      64693.007     -4778725.2      3532.9909      1318.2443      88456.302    
     83200  -4842358.8      65516.899     -4776841.9      3577.985      -425.58962      88632.536    
     83300  -4842172.6      66135.548     -4776037        3611.7704     -2456.2264      88681.105    
     83400  -4843036.7      67111.581     -4775925.1      3665.0732     -2590.7846      88608.17     
     83500  -4842427        65524.392     -4776902.6      3578.3942      1634.642       88485.099    
     83600  -4843332.4      65156.557     -4778175.8      3558.3061     -264.61559      88480.58     
     83700  -4843579.4      64814.396     -4778765        3539.6202     -713.1958       88440.492    
     83800  -4843873.7      66619.747     -4777254        3638.2133      3664.2509      88376.522    
     83900  -4842033.6      66090.047     -4775943.5      3609.2856      1607.5667      88472.04     
     84000  -4842987.8      67148.447     -4775839.4      3667.0865     -6006.7757      88680.531    
     84100  -4842106.8      65016.443     -4777090.3      3550.6543     -3957.7298      88656.03     
     84200  -4843106.2      65195.461     -4777910.7      3560.4308      2296.9807      88426.098    
     84300  -4844713.3      66618.306     -4778095        3638.1346      2992.4503      88341.642    
     84400  -4843243.4      65648.883     -4777594.5      3585.1929     -529.70128      88461.264    
     84500  -4841689.8      65951.165     -4775738.7      3601.701      -815.23064      88613        
     84600  -4842215        66852.02      -4775362.9      3650.8982     -2487.2675      88745.81     
     84700  -4841687.9      65160.974     -4776527        3558.5474     -1102.8975      88722.577    
     84800  -4843771.9      66479.206     -4777292.7      3630.5381      129.4041       88565.146    
     84900  -4844088.9      66649.658     -4777439.3      3639.8468      1526.3317      88323.418    
     85000  -4843230.9      65742.646     -4777488.3      3590.3134      5133.4648      88246.486    
     85100  -4843168.6      65809.76      -4777358.8      3593.9786     -33.887326      88512.108    
     85200  -4843477.5      66864.365     -4776613.1      3651.5723     -3706.2132      88785.609    
     85300  -4842319.6      66730.498     -4775589.1      3644.2616     -2158.5952      88821.3      
     85400  -4842584.3      67074.803     -4775509.5      3663.0647      935.66093      88640.375    
     85500  -4843090.7      65977.57      -4777113.1      3603.143       1471.5305      88483.221    
     85600  -4843671.2      65699.634     -4777971.5      3587.9644      3110.274       88422.912    
     85700  -4842556.8      64776.565     -4777780.2      3537.5541      357.42229      88512.829    
     85800  -4842740.3      65959.6       -4776780.7      3602.1616      51.829811      88622.232    
     85900  -4842104.1      66398.108     -4775706        3626.1092     -3338.1616      88648.613    
     86000  -4842458.7      66767.462     -4775691.2      3646.2803      3071.1773      88529.277    
     86100  -4844076.2      65857.351     -4778218.8      3596.5777      667.42765      88431.194    
     86200  -4843911.5      65546.043     -4778365.5      3579.5766     -1704.3345      88408.753    
     86300  -4843067.7      65461.714     -4777605.9      3574.9712     -640.77394      88414.6      
     86400  -4843373.3      66604.614     -4776768.7      3637.3869      1709.084       88446.665    
     86500  -4843255.3      66716.227     -4776539.1      3643.4823     -3289.3017      88627.247    
     86600  -4842142.7      65029.161     -4777113.6      3551.3488     -2160.9781      88749.399    
     86700  -4844071.7      65630.634     -4778441.1      3584.1962     -1492.2019      88598.504    
     86800  -4844684.8      65718.55      -4778966.3      3588.9975      3765.6057      88243.047    
     86900  -4843943.4      65705.667     -4778237.7      3588.2939      4278.6126      88108.267    
     87000  -4842786.9      66338.997     -4776447.9      3622.8811     -830.83326      88413.55     
     87100  -4842333.1      65796.595     -4776536.5      3593.2596     -4650.3119      88837.159    
     87200  -4842371.6      65717.154     -4776654.5      3588.9212     -7589.4778      88971.788    
     87300  -4842568.1      65872.503     -4776695.6      3597.4051     -493.77797      88561.577    
     87400  -4843026.8      65586.846     -4777439.9      3581.805       8167.8498      88108.068    
     87500  -4844277.9      65448.795     -4778829.1      3574.2657      1750.2935      88196.97     
     87600  -4844364.6      65213.199     -4779151.4      3561.3994     -5439.9605      88477.229    
     87700  -4843546.3      65705.685     -4777840.6      3588.2949     -3072.2909      88533.934    
     87800  -4842736.3      65793.843     -4776942.4      3593.1094      447.11464      88485.01     
     87900  -4842413.4      65339.182     -4777074.2      3568.2796      114.31038      88520.563    
     88000  -4843553.3      66081.27      -4777472        3608.8062     -2309.274       88588.251    
     88100  -4843545.1      66391.02      -4777154.1      3625.7222     -2585.3427      88597.479    
     88200  -4842343.1      66250.915     -4776092.2      3618.0708      2298.4566      88548.379    
     88300  -4843304        67716.194     -4775587.8      3698.0921      281.62814      88557.692    
     88400  -4843353.6      66560.248     -4776793.3      3634.964       132.31123      88597.468    
     88500  -4843267.5      65210.158     -4778057.4      3561.2334     -2966.2711      88628.283    
     88600  -4843348        65355.797     -4777992.2      3569.187      -298.97476      88462.8      
     88700  -4842646        65238.734     -4777407.3      3562.794       5422.9735      88277.825    
     88800  -4842086.2      66028.817     -4776057.4      3605.9417      3842.1166      88413.582    
     88900  -4841892.1      66547.191     -4775344.9      3634.2509     -4158.1672      88727.753    
     89000  -4842259.8      66155.228     -4776104.6      3612.8452     -4969.8592      88853.498    
     89100  -4843341.8      65869.58      -4777472.3      3597.2455     -2510.9497      88641.641    
     89200  -4843427.1      65479.13      -4777947.9      3575.9224      2641.5498      88274.282    
     89300  -4844275.5      66725.854     -4777549.7      3644.008       3497.1811      88213.402    
     89400  -4842596.8      66005.36      -4776591.5      3604.6607      1483.7749      88489.358    
     89500  -4843079.3      67932.739     -4775146.5      3709.918      -5527.4327      88833.563    
     89600  -4841215.1      66046.115     -4775169        3606.8864     -3149.9543      88936.378    
     89700  -4842551.4      66332.383     -4776219        3622.5199     -5246.9291      88728.243    
     89800  -4844019        65949.619     -4778069.4      3601.6165      5669.0698      88295.848    
     89900  -4843956        65967.738     -4777988.3      3602.606       5398.2181      88170.311    
     90000  -4842976.6      65622.792     -4777353.8      3583.768       270.47989      88426.34     
Loop time of 358.327 on 8 procs for 10000 steps with 6144 atoms

Performance: 2.411 ns/day, 9.954 hours/ns, 27.907 timesteps/s, 171.464 katom-step/s
96.6% CPU use with 8 MPI tasks x 1 OpenMP threads

MPI task timing breakdown:
Section |  min time  |  avg time  |  max time  |%varavg| %total
---------------------------------------------------------------
Pair    | 40.377     | 46.209     | 49.368     |  40.4 | 12.90
Kspace  | 270.6      | 274.3      | 280.82     |  20.0 | 76.55
Neigh   | 2.7732     | 2.8398     | 2.8936     |   2.0 |  0.79
Comm    | 29.627     | 31.144     | 33.359     |  20.7 |  8.69
Output  | 0.28917    | 0.29942    | 0.30877    |   1.1 |  0.08
Modify  | 2.5612     | 2.6177     | 2.6463     |   1.8 |  0.73
Other   |            | 0.9149     |            |       |  0.26

Nlocal:            768 ave         779 max         760 min
Histogram: 2 1 0 0 1 2 0 1 0 1
Nghost:        5867.25 ave        5887 max        5856 min
Histogram: 1 2 0 3 0 0 1 0 0 1
Neighs:         191520 ave      201182 max      185949 min
Histogram: 3 0 1 1 0 1 1 0 0 1

Total # of neighbors = 1532158
Ave neighs/atom = 249.37467
Neighbor list builds = 538
Dangerous builds = 0

# Unfix the previous fix to prepare for the next loop iteration
unfix 1

# Dump settings will be cleared with the unfix command, so we remove it
undump 1

# Next iteration
next temp
jump SELF loop_temperature

# Set velocities for initial temperature of ${temp} K
velocity all create ${temp} 87287 loop geom
velocity all create 3800 87287 loop geom

# Apply NPT ensemble with P = 1 atm, T = ${temp} K, timestep = 1.0 fs, temperature damping = 100 fs (100x timestep), pressure damping = 1000 fs (1000x timestep)
fix 1 all npt temp ${temp} ${temp} 100.0 iso 1.0 1.0 1000.0
fix 1 all npt temp 3800 ${temp} 100.0 iso 1.0 1.0 1000.0
fix 1 all npt temp 3800 3800 100.0 iso 1.0 1.0 1000.0
thermo 100
thermo_style custom step pe ke etotal temp press vol

# Output dump
dump 1 all custom 100 dump_${temp}K.lammpstrj id element x y z vx vy vz
dump 1 all custom 100 dump_3800K.lammpstrj id element x y z vx vy vz
dump_modify 1 element Ce O

# Run the simulation for 10000 steps
run 10000
Ewald initialization ...
  using 12-bit tables for long-range coulomb (src/kspace.cpp:342)
  G vector (1/distance) = 0.30819295
  estimated absolute RMS force accuracy = 0.036518409
  estimated relative force accuracy = 0.00010997411
  KSpace vectors: actual max1d max3d = 5756 14 12194
                  kxmax kymax kzmax  = 14 14 14
Generated 0 of 1 mixed pair_coeff terms from geometric mixing rule
Per MPI rank memory allocation (min/avg/max) = 29.01 | 29.01 | 29.01 Mbytes
   Step         PotEng         KinEng         TotEng          Temp          Press          Volume    
     90000  -4842976.6      69582.241     -4773394.4      3800           2316.8893      88426.34     
     90100  -4839752.1      67727.54      -4772024.6      3698.7118      3573.1686      88591.665    
     90200  -4838597.8      68224.435     -4770373.3      3725.848       600.0964       89016.18     
     90300  -4837286.4      68647.76      -4768638.7      3748.9665     -3010.8312      89360.5      
     90400  -4837008.4      69766.318     -4767242.1      3810.0527     -3314.8534      89333.296    
     90500  -4836982.1      70296.207     -4766685.9      3838.9909      1706.7144      89055.133    
     90600  -4837828.3      70291.266     -4767537.1      3838.721       5302.0939      88870.823    
     90700  -4838771.2      69611.649     -4769159.6      3801.606      -1299.6285      88992.204    
     90800  -4838471.1      69135.683     -4769335.4      3775.6127     -360.15735      89126.009    
     90900  -4837365.7      69020.901     -4768344.8      3769.3443     -907.5249       89198.53     
     91000  -4836839.3      69244.564     -4767594.7      3781.5589      786.59921      89202.189    
     91100  -4837140.5      70178.194     -4766962.3      3832.546      -225.35252      89136.508    
     91200  -4837170.4      69946.434     -4767224        3819.8891      4373.5073      89001.435    
     91300  -4837607.2      70081.54      -4767525.6      3827.2675      2715.4473      89059.266    
     91400  -4837566.5      69478.493     -4768088        3794.3341     -2153.7648      89271.529    
     91500  -4836827.1      68564.341     -4768262.8      3744.4108     -5170.4522      89318.293    
     91600  -4836645.3      69955.596     -4766689.7      3820.3895      1489.8444      89112.896    
     91700  -4836487.5      70561.4       -4765926.1      3853.4734      6542.9796      88962.907    
     91800  -4837037.5      70056.101     -4766981.4      3825.8782      1931.3509      89051.348    
     91900  -4837711.9      69953.237     -4767758.6      3820.2607     -315.88186      89221.938    
     92000  -4836480.5      68378.586     -4768101.9      3734.2664      113.50736      89282.904    
     92100  -4837451.2      69615.88      -4767835.3      3801.8371     -2195.8932      89198.387    
     92200  -4837251.8      70056.292     -4767195.5      3825.8887      3748.6989      89020.853    
     92300  -4837038.7      70499.623     -4766539.1      3850.0997      2543.348       89035.192    
     92400  -4837451.8      70103.858     -4767347.9      3828.4863     -1285.9646      89184.502    
     92500  -4837510.9      68950.868     -4768560.1      3765.5197     -2206.3809      89279.121    
     92600  -4837274.8      68611.331     -4768663.5      3746.977      -2215.0116      89205.289    
     92700  -4837541.4      70423.374     -4767118        3845.9356      1053.072       89078.319    
     92800  -4836797.5      70952.902     -4765844.6      3874.854       1592.9474      89125.948    
     92900  -4836151.6      69445.429     -4766706.2      3792.5285      784.34719      89305.051    
     93000  -4837910.3      70517.457     -4767392.8      3851.0737     -5276.8908      89382.758    
     93100  -4837385.1      69138.225     -4768246.8      3775.7515     -2819.5834      89160.169    
     93200  -4838177        69370.892     -4768806.1      3788.4579      4659.8985      88853.552    
     93300  -4838433.1      68099.768     -4770333.4      3719.0397      2490.9208      88866.17     
     93400  -4838709.7      67268.213     -4771441.5      3673.6272     -3620.6185      89058.607    
     93500  -4838450.3      68839.628     -4769610.7      3759.4447     -373.87918      89068.073    
     93600  -4838504.6      70030.453     -4768474.2      3824.4775      1070.7876      89058.329    
     93700  -4838353.4      70967.184     -4767386.3      3875.634       600.59877      89136.306    
     93800  -4837328.4      70512.811     -4766815.6      3850.8199     -1218.2037      89227.861    
     93900  -4837140.8      69722.199     -4767418.6      3807.6433     -319.11448      89239.622    
     94000  -4837701        68863.708     -4768837.3      3760.7597     -4293.1128      89160.947    
     94100  -4838735.8      69193.092     -4769542.7      3778.7479      2305.4845      88993.846    
     94200  -4838193.1      69637.762     -4768555.4      3803.0321      2640.2188      88965.392    
     94300  -4837543.3      70707.591     -4766835.7      3861.4572      455.28042      89093.145    
     94400  -4837999.4      71152.587     -4766846.9      3885.7592     -5737.4257      89348.733    
     94500  -4836473.1      69014.854     -4767458.2      3769.014      -1383.9452      89428.214    
     94600  -4836715.9      69567.749     -4767148.1      3799.2086     -3545.2077      89384.003    
     94700  -4837176.5      70585.409     -4766591.1      3854.7847      3582.1937      89104.707    
     94800  -4836395.8      70157.499     -4766238.3      3831.4157      5763.6574      88902.513    
     94900  -4836345.8      68939.717     -4767406        3764.9107      1001.6558      89040.816    
     95000  -4837836.9      69370.384     -4768466.5      3788.4301     -4479.6362      89302.293    
     95100  -4837893.4      69388.159     -4768505.3      3789.4008     -2292.8391      89239.15     
     95200  -4837508.6      70527.195     -4766981.4      3851.6055      3178.359       89007.235    
     95300  -4836637.3      70626.31      -4766011        3857.0183      4045.6555      89035.439    
     95400  -4836559.6      69577.126     -4766982.5      3799.7207     -1930.1721      89285.319    
     95500  -4836125.8      68282.003     -4767843.8      3728.9919     -1730.0705      89443.843    
     95600  -4836626.6      69263.628     -4767363        3782.6        -3919.7411      89338.626    
     95700  -4835298.3      69122.045     -4766176.2      3774.8679      5265.9514      89044.791    
     95800  -4835514        70886.539     -4764627.5      3871.2298      6178.4243      88979.163    
     95900  -4836442.1      70631.477     -4765810.6      3857.3005      1661.2766      89305.496    
     96000  -4836503        69128.036     -4767374.9      3775.1951     -8360.0826      89650.067    
     96100  -4837454.4      69856.293     -4767598.1      3814.9664     -3896.0092      89413.256    
     96200  -4837912.5      70613.64      -4767298.9      3856.3264      4814.4965      88949.348    
     96300  -4838380.9      70206.037     -4768174.9      3834.0665      5237.8059      88829.638    
     96400  -4838694.1      69040.785     -4769653.3      3770.4302     -3044.371       88990.718    
     96500  -4837970.2      68081.645     -4769888.6      3718.05        557.52491      89015.801    
     96600  -4839059.8      70262.51      -4768797.3      3837.1506      945.21111      88990.316    
     96700  -4838402.5      70087.684     -4768314.8      3827.603       3505.5207      88972.204    
     96800  -4838115.2      69797.324     -4768317.8      3811.746      -2331.8136      89095.167    
     96900  -4837562.7      69305.006     -4768257.7      3784.8597     -993.73709      89184.897    
     97000  -4837125.8      69406.707     -4767719.1      3790.4138      426.12416      89183.194    
     97100  -4836804        70279.61      -4766524.4      3838.0844      2281.6094      89092.379    
     97200  -4837060.3      71194.616     -4765865.6      3888.0544      3106.1636      89071.596    
     97300  -4836903.2      69214.932     -4767688.3      3779.9407      948.37201      89218.044    
     97400  -4838682.3      70105.8       -4768576.5      3828.5924     -3003.4718      89262.874    
     97500  -4837182.3      68660.238     -4768522        3749.6479     -1994.9008      89116.063    
     97600  -4837486        69853.779     -4767632.2      3814.8291      3014.7288      88885.171    
     97700  -4837548.1      70356.625     -4767191.4      3842.2903      3555.6716      88868.585    
     97800  -4837131.8      68860.459     -4768271.4      3760.5823     -875.8597       89101.194    
     97900  -4838129.5      68624.242     -4769505.3      3747.6821     -3074.9344      89267.317    
     98000  -4838131.1      68931.724     -4769199.4      3764.4742     -1264.6402      89137.974    
     98100  -4837504.2      69984.214     -4767520        3821.9524      3668.8024      88889.383    
     98200  -4837045        69863.671     -4767181.4      3815.3693      2957.4495      88915.131    
     98300  -4837549.5      69909.021     -4767640.5      3817.846      -3164.6511      89193.976    
     98400  -4837492.4      69152.411     -4768340        3776.5263     -3956.5684      89294.616    
     98500  -4837472.2      68667.165     -4768805.1      3750.0262      1682.6062      89172.534    
     98600  -4836536.7      69484.547     -4767052.1      3794.6648      1951.5487      89127.646    
     98700  -4836152.4      69828.425     -4766323.9      3813.4445      179.82822      89202.468    
     98800  -4836555.3      69758.731     -4766796.6      3809.6384     -3697.5         89312.671    
     98900  -4837323.4      68937.249     -4768386.1      3764.7759     -1244.9801      89238.463    
     99000  -4837453.2      68558.471     -4768894.7      3744.0902      2702.4321      88998.178    
     99100  -4838757        70055.495     -4768701.5      3825.8452      2546.3782      88839.033    
     99200  -4838676.3      69823.345     -4768853        3813.167      -77.64577       88933.738    
     99300  -4838429.1      69938.096     -4768491        3819.4338     -1320.0361      89185.593    
     99400  -4836574.8      70304.643     -4766270.1      3839.4515      115.67309      89347.043    
     99500  -4835845        70124.512     -4765720.5      3829.6143      65.594092      89394.03     
     99600  -4836485.8      69920.416     -4766565.4      3818.4683     -4443.7997      89337.612    
     99700  -4837131.9      69354.739     -4767777.2      3787.5757      2255.7811      89077.757    
     99800  -4838220.4      69786.074     -4768434.3      3811.1317      3335.9337      88930.441    
     99900  -4837738.1      68811.175     -4768927        3757.8908      2306.1077      88956.435    
    100000  -4838924.1      70252.387     -4768671.7      3836.5978     -3071.2271      89074.745    
Loop time of 349.66 on 8 procs for 10000 steps with 6144 atoms

Performance: 2.471 ns/day, 9.713 hours/ns, 28.599 timesteps/s, 175.714 katom-step/s
99.0% CPU use with 8 MPI tasks x 1 OpenMP threads

MPI task timing breakdown:
Section |  min time  |  avg time  |  max time  |%varavg| %total
---------------------------------------------------------------
Pair    | 40.327     | 42.251     | 43.733     |  20.8 | 12.08
Kspace  | 269.06     | 270.91     | 273.12     |   7.6 | 77.48
Neigh   | 2.7934     | 2.9605     | 3.0102     |   3.8 |  0.85
Comm    | 29.573     | 30.709     | 32.187     |  13.5 |  8.78
Output  | 0.20206    | 0.20209    | 0.20221    |   0.0 |  0.06
Modify  | 1.8489     | 1.8636     | 1.8783     |   0.8 |  0.53
Other   |            | 0.7635     |            |       |  0.22

Nlocal:            768 ave         777 max         760 min
Histogram: 2 1 0 1 0 1 0 1 1 1
Nghost:        5873.25 ave        5888 max        5859 min
Histogram: 1 1 2 0 0 1 0 0 2 1
Neighs:         189971 ave      198153 max      181389 min
Histogram: 1 1 2 0 0 0 1 0 1 2

Total # of neighbors = 1519769
Ave neighs/atom = 247.35824
Neighbor list builds = 556
Dangerous builds = 0

# Unfix the previous fix to prepare for the next loop iteration
unfix 1

# Dump settings will be cleared with the unfix command, so we remove it
undump 1

# Next iteration
next temp
jump SELF loop_temperature

# Set velocities for initial temperature of ${temp} K
velocity all create ${temp} 87287 loop geom
velocity all create 4000 87287 loop geom

# Apply NPT ensemble with P = 1 atm, T = ${temp} K, timestep = 1.0 fs, temperature damping = 100 fs (100x timestep), pressure damping = 1000 fs (1000x timestep)
fix 1 all npt temp ${temp} ${temp} 100.0 iso 1.0 1.0 1000.0
fix 1 all npt temp 4000 ${temp} 100.0 iso 1.0 1.0 1000.0
fix 1 all npt temp 4000 4000 100.0 iso 1.0 1.0 1000.0
thermo 100
thermo_style custom step pe ke etotal temp press vol

# Output dump
dump 1 all custom 100 dump_${temp}K.lammpstrj id element x y z vx vy vz
dump 1 all custom 100 dump_4000K.lammpstrj id element x y z vx vy vz
dump_modify 1 element Ce O

# Run the simulation for 10000 steps
run 10000
Ewald initialization ...
  using 12-bit tables for long-range coulomb (src/kspace.cpp:342)
  G vector (1/distance) = 0.30813368
  estimated absolute RMS force accuracy = 0.036803117
  estimated relative force accuracy = 0.00011083149
  KSpace vectors: actual max1d max3d = 5756 14 12194
                  kxmax kymax kzmax  = 14 14 14
Generated 0 of 1 mixed pair_coeff terms from geometric mixing rule
Per MPI rank memory allocation (min/avg/max) = 29.01 | 29.01 | 29.01 Mbytes
   Step         PotEng         KinEng         TotEng          Temp          Press          Volume    
    100000  -4838924        73244.465     -4765679.6      4000          -1536.2723      89074.745    
    100100  -4836203.9      72258.836     -4763945.1      3946.1732      4739.2777      89084.747    
    100200  -4834272        72224.65      -4762047.4      3944.3063      2828.7323      89370        
    100300  -4833027.9      72988.082     -4760039.8      3985.9985     -4555.8661      89742.899    
    100400  -4831711        73284.429     -4758426.5      4002.1825     -623.9897       89839.84     
    100500  -4830893.6      73609.986     -4757283.6      4019.9617     -3447.9957      89797.914    
    100600  -4831454.3      74048.087     -4757406.2      4043.8872      2237.3001      89638.435    
    100700  -4831864        73215.273     -4758648.7      3998.4058      815.03151      89591.959    
    100800  -4832569.3      72782.346     -4759787        3974.7629     -490.85298      89654.972    
    100900  -4832193.3      72669.988     -4759523.3      3968.6269     -164.44943      89709.689    
    101000  -4832076.2      73335.584     -4758740.6      4004.9762      731.18641      89715.113    
    101100  -4831710.4      73467.741     -4758242.7      4012.1935      756.91405      89751.288    
    101200  -4832816.4      74505.14      -4758311.3      4068.8476      1015.0674      89726.063    
    101300  -4831928.3      73092.461     -4758835.8      3991.6988     -644.60687      89698.793    
    101400  -4832464.7      73109.979     -4759354.7      3992.6555      1574.3676      89627.452    
    101500  -4832499.8      72260.263     -4760239.6      3946.2511      2260.6477      89545.84     
    101600  -4832111.3      72073.806     -4760037.5      3936.0684      3519.1471      89548.253    
    101700  -4832088.5      73750.229     -4758338.3      4027.6206      889.7813       89631.644    
    101800  -4831166.8      73531.321     -4757635.5      4015.6657      628.62209      89794.06     
    101900  -4831817.9      74279.237     -4757538.7      4056.5106     -5042.1368      90051.409    
    102000  -4830637.1      72580.566     -4758056.5      3963.7434     -2168.4369      90052.013    
    102100  -4831522.2      72303.025     -4759219.2      3948.5864     -2086.3573      89702.583    
    102200  -4832883.8      72941.327     -4759942.5      3983.4452      6719.551       89199.022    
    102300  -4833716.3      72957.81      -4760758.5      3984.3454      8855.1743      89083.634    
    102400  -4832921.2      71771.395     -4761149.8      3919.5533      1741.0438      89