LAMMPS (28 Mar 2023 - Update 1)
OMP_NUM_THREADS environment is not set. Defaulting to 1 thread. (src/comm.cpp:98)
  using 1 OpenMP thread(s) per MPI task
# LAMMPS input script using real units

units real
atom_style charge
boundary p p p

# Create lattice (Note: Adjust the lattice parameters as necessary)
lattice custom 5.411 basis 0.00 0.00 0.00                      basis 0.00 0.50 0.50                      basis 0.50 0.00 0.50                      basis 0.50 0.50 0.00                      basis 0.25 0.75 0.75                      basis 0.75 0.25 0.25                      basis 0.25 0.25 0.25                      basis 0.75 0.75 0.75                      basis 0.75 0.75 0.25                      basis 0.25 0.25 0.75                      basis 0.75 0.25 0.75                      basis 0.25 0.75 0.25
Lattice spacing in x,y,z = 5.411 5.411 5.411
region box block 0 12 0 12 0 12
create_box 2 box
Created orthogonal box = (0 0 0) to (64.932 64.932 64.932)
  2 by 2 by 2 MPI processor grid
create_atoms 1 box basis 1 1 basis 2 1 basis 3 1 basis 4 1                    basis 5 2 basis 6 2 basis 7 2 basis 8 2 basis 9 2 basis 10 2 basis 11 2 basis 12 2
Created 20736 atoms
  using lattice units in orthogonal box = (0 0 0) to (64.932 64.932 64.932)
  create_atoms CPU = 0.002 seconds

# Mass of Ce and O in atomic units
mass 1 140.116   # Cerium
mass 2 15.999    # Oxygen

# Set charges for the atom types
set type 1 charge 4.0   # Charge for Cerium (Ce)
Setting atom values ...
  6912 settings made for charge
set type 2 charge -2.0  # Charge for Oxygen (O)
Setting atom values ...
  13824 settings made for charge

# Naming atom types for OVITO visualization
group Ce type 1
6912 atoms in group Ce
group O type 2
13824 atoms in group O

# Dump the initial configuration
dump init all custom 1 initial_config.lammpstrj id element x y z vx vy vz
dump_modify init element Ce O first yes
run 0
WARNING: No fixes with time integration, atoms won't move (src/verlet.cpp:60)
WARNING: No pairwise cutoff or binsize set. Atom sorting therefore disabled. (src/atom.cpp:2355)
WARNING: Communication cutoff is 0.0. No ghost atoms will be generated. Atoms may get lost. (src/comm_brick.cpp:210)
Per MPI rank memory allocation (min/avg/max) = 3.83 | 3.83 | 3.83 Mbytes
   Step          Temp          E_pair         E_mol          TotEng         Press     
         0   0              0              0              0              0            
Loop time of 2.83825e-06 on 8 procs for 0 steps with 20736 atoms

101.3% CPU use with 8 MPI tasks x 1 OpenMP threads

MPI task timing breakdown:
Section |  min time  |  avg time  |  max time  |%varavg| %total
---------------------------------------------------------------
Pair    | 0          | 0          | 0          |   0.0 |  0.00
Neigh   | 0          | 0          | 0          |   0.0 |  0.00
Comm    | 0          | 0          | 0          |   0.0 |  0.00
Output  | 0          | 0          | 0          |   0.0 |  0.00
Modify  | 0          | 0          | 0          |   0.0 |  0.00
Other   |            | 2.838e-06  |            |       |100.00

Nlocal:           2592 ave        2592 max        2592 min
Histogram: 8 0 0 0 0 0 0 0 0 0
Nghost:            235 ave         235 max         235 min
Histogram: 8 0 0 0 0 0 0 0 0 0
Neighs:              0 ave           0 max           0 min
Histogram: 8 0 0 0 0 0 0 0 0 0

Total # of neighbors = 0
Ave neighs/atom = 0
Neighbor list builds = 0
Dangerous builds = 0
undump init

# Stop LAMMPS after generating the initial dump file for debugging
# quit

# Buckingham potential with Coulombic term
pair_style buck/coul/long 10.0
pair_coeff 1 1 0.0 1.0 0.0
pair_coeff 1 2 27127.1511 0.3810 0.0
pair_coeff 2 2 524856.597 0.1490 643.164436

# I converted these to kcal/mol above, but the original values are below
# pair_coeff 1 2 11.350e4 0.3810 0.0
# pair_coeff 2 2 21.960e5 0.1490 2.691e3

# pair_coeff 1 1 A1 B1 C1
# pair_coeff 1 2 A12 B12 C12
# pair_coeff 2 2 A2 B2 C2

# Note: The parameters A, B, and C need to be provided for Ce-Ce, Ce-O, and O-O interactions.
# A = repulsive potential coefficient
# B = repulsive potential exponent
# C = van der Waals interaction coefficient
# Replace A1, B1, C1, A12, B12, C12, A2, B2, and C2 with their respective values.

kspace_style ewald 1.0e-4

# Timestep of 1 fs (since we are using real units)
timestep 1.0

# Loop over temperatures from 2000 K to 4000 K in increments of 200 K
variable temp index 2000 2200 2400 2600 2800 3000 3200 3400 3600 3800 4000
label loop_temperature

# Set velocities for initial temperature of ${temp} K
velocity all create ${temp} 87287 loop geom
velocity all create 2000 87287 loop geom

# Apply NPT ensemble with P = 1 atm, T = ${temp} K, timestep = 1.0 fs, temperature damping = 100 fs (100x timestep), pressure damping = 1000 fs (1000x timestep)
fix 1 all npt temp ${temp} ${temp} 100.0 aniso 1.0 1.0 1000.0
fix 1 all npt temp 2000 ${temp} 100.0 aniso 1.0 1.0 1000.0
fix 1 all npt temp 2000 2000 100.0 aniso 1.0 1.0 1000.0
thermo 100
thermo_style custom step pe ke etotal temp press vol

# Output dump
dump 1 all custom 100 dump_${temp}K.lammpstrj id element x y z vx vy vz
dump 1 all custom 100 dump_2000K.lammpstrj id element x y z vx vy vz
dump_modify 1 element Ce O

# Run the simulation for 10000 steps
run 10000
Ewald initialization ...
  using 12-bit tables for long-range coulomb (src/kspace.cpp:342)
  G vector (1/distance) = 0.3088922
  estimated absolute RMS force accuracy = 0.04163772
  estimated relative force accuracy = 0.00012539076
  KSpace vectors: actual max1d max3d = 16700 20 34460
                  kxmax kymax kzmax  = 20 20 20
Generated 0 of 1 mixed pair_coeff terms from geometric mixing rule
Neighbor list info ...
  update: every = 1 steps, delay = 0 steps, check = yes
  max neighbors/atom: 2000, page size: 100000
  master list distance cutoff = 12
  ghost atom cutoff = 12
  binsize = 6, bins = 11 11 11
  1 neighbor lists, perpetual/occasional/extra = 1 0 0
  (1) pair buck/coul/long, perpetual
      attributes: half, newton on
      pair build: half/bin/atomonly/newton
      stencil: half/bin/3d
      bin: standard
Per MPI rank memory allocation (min/avg/max) = 42.88 | 42.88 | 42.88 Mbytes
   Step         PotEng         KinEng         TotEng          Temp          Press          Volume    
         0  -16602012       123614.19     -16478397       2000           3790.267       273764       
       100  -16538777       65676.166     -16473101       1062.5991      1279.9705      278191.51    
       200  -16529664       67371.439     -16462293       1090.0276     -5263.7947      279950.09    
       300  -16524206       74457.152     -16449748       1204.6699      4515.8162      279275.94    
       400  -16517187       81299.467     -16435887       1315.3743      4979.2606      279917.85    
       500  -16508830       87797.637     -16421033       1420.5106     -1385.1985      281578       
       600  -16500281       94800.936     -16405480       1533.8196      347.3008       282266.58    
       700  -16492943       103140.71     -16389802       1668.752       2607.9006      282754.14    
       800  -16484369       109752.88     -16374616       1775.7326      1085.0166      283794.44    
       900  -16477768       117158.22     -16360610       1895.5463     -6.3447093      284790.21    
      1000  -16471012       122211.98     -16348800       1977.3131      786.6596       285428.37    
      1100  -16467248       126558.21     -16340690       2047.6324      262.04122      285892.57    
      1200  -16464732       126796.41     -16337936       2051.4864     -629.30841      286259.23    
      1300  -16467012       125626.85     -16341385       2032.5635     -1652.7949      286221.78    
      1400  -16470453       123339.85     -16347113       1995.5612     -188.67571      285661.96    
      1500  -16471938       121440.11     -16350498       1964.8247      1340.0231      285218.64    
      1600  -16471807       122045.33     -16349761       1974.6167      524.51481      285338.88    
      1700  -16470081       124437.32     -16345644       2013.3176     -652.71084      285724.13    
      1800  -16467023       125128.56     -16341894       2024.5015     -354.50027      285957.34    
      1900  -16467577       126429.2      -16341148       2045.545       181.60822      285968.01    
      2000  -16468204       124213.25     -16343991       2009.6923     -1093.2291      285873.11    
      2100  -16469949       122409.41     -16347539       1980.5073      551.46571      285577.87    
      2200  -16470404       121235.57     -16349168       1961.5154      443.67598      285294.06    
      2300  -16469977       122009.45     -16347968       1974.0363      1124.2192      285257.53    
      2400  -16469030       124056.61     -16344974       2007.158       58.701607      285738.39    
      2500  -16466799       124475.55     -16342323       2013.9363     -1424.2624      286059.38    
      2600  -16467846       125805.33     -16342040       2035.4513      175.42199      285872.73    
      2700  -16467934       123246.17     -16344688       1994.0456      143.25612      285753.21    
      2800  -16470638       122939.2      -16347699       1989.079       31.410584      285589.22    
      2900  -16469189       120433.54     -16348755       1948.539       1854.296       285414.77    
      3000  -16469405       122415.13     -16346990       1980.5999     -521.73164      285588.03    
      3100  -16467837       123675.64     -16344161       2000.9942      458.11413      285781.64    
      3200  -16466735       124169.68     -16342565       2008.9875     -1412.2812      286024.42    
      3300  -16467512       124395.01     -16343117       2012.6331     -321.72797      285944.58    
      3400  -16468573       123173.19     -16345400       1992.8649      1399.4594      285539.65    
      3500  -16470321       122712.82     -16347609       1985.4163      71.408251      285503.37    
      3600  -16470743       122589.52     -16348154       1983.4214     -668.21505      285625.48    
      3700  -16470044       123508.17     -16346535       1998.2847      331.36183      285510.11    
      3800  -16468820       124910.01     -16343910       2020.9655      530.72912      285595.14    
      3900  -16468194       125264.33     -16342930       2026.6982     -1038.3888      285920.87    
      4000  -16467503       123322.15     -16344181       1995.275      -368.58956      285889.43    
      4100  -16470286       124063.43     -16346222       2007.2684      89.297616      285674.74    
      4200  -16469386       121723.39     -16347662       1969.408       785.08039      285451.74    
      4300  -16469589       122325.53     -16347263       1979.1503      1810.0326      285376.98    
      4400  -16468699       123176.03     -16345523       1992.9109     -1315.9237      285849.74    
      4500  -16467981       124402.69     -16343578       2012.7573     -2124.183       286076.08    
      4600  -16467552       125148.38     -16342403       2024.8222      116.62671      285810.62    
      4700  -16467215       123278.37     -16343937       1994.5666      1836.8887      285634.57    
      4800  -16469530       122874.22     -16346656       1988.0277     -380.64323      285669.8     
      4900  -16470111       122311.39     -16347799       1978.9214      371.60432      285621.66    
      5000  -16470397       123549.75     -16346848       1998.9574      624.06369      285442.59    
      5100  -16469200       124315.59     -16344884       2011.3481      837.24998      285536.93    
      5200  -16467130       123870.92     -16343259       2004.1537     -1574.2339      285894.2     
      5300  -16467947       124195.5      -16343752       2009.4052     -93.1998        285768.03    
      5400  -16468352       123047.62     -16345304       1990.8333      551.04274      285598.66    
      5500  -16470251       123385.44     -16346866       1996.2989      464.32948      285593.45    
      5600  -16469887       122551.93     -16347336       1982.8132      500.94532      285602.78    
      5700  -16469813       123718.61     -16346094       2001.6894      637.57885      285672.77    
      5800  -16468750       124478.78     -16344272       2013.9885     -83.548716      285852.99    
      5900  -16468204       124955.69     -16343249       2021.7045     -1420.1719      285959.47    
      6000  -16467833       123902.89     -16343930       2004.671      -278.08997      285753.57    
      6100  -16469515       123698.35     -16345817       2001.3616     -29.016507      285540.54    
      6200  -16470540       123020.46     -16347520       1990.3937      749.0357       285489.04    
      6300  -16469633       122084.13     -16347549       1975.2446      105.08472      285570.12    
      6400  -16468455       122854.25     -16345601       1987.7046     -247.84553      285677.05    
      6500  -16467402       123765.47     -16343636       2002.4476     -218.10998      285872.3     
      6600  -16468307       125212.67     -16343094       2025.8624     -1934.9256      286005.8     
      6700  -16468660       124113.41     -16344546       2008.077       789.03701      285617.86    
      6800  -16469945       123313.92     -16346631       1995.1418      560.44658      285464.11    
      6900  -16471102       123275.4      -16347827       1994.5185     -375.80185      285592.63    
      7000  -16469755       122746.82     -16347008       1985.9664     -686.49328      285688.81    
      7100  -16469204       124533.77     -16344670       2014.8783     -50.15443       285672.95    
      7200  -16468399       125178.67     -16343221       2025.3122      1290.2163      285687.26    
      7300  -16467984       124337.82     -16343646       2011.7078     -1561.0634      285971.19    
      7400  -16469499       124176.93     -16345322       2009.1047     -1435.3924      285787.96    
      7500  -16469654       122612.97     -16347041       1983.8009      2287.1208      285310.77    
      7600  -16470508       122950.81     -16347557       1989.2669      660.39479      285531.85    
      7700  -16468582       122244.87     -16346337       1977.8452     -1633.8469      285907.18    
      7800  -16468942       124710.79     -16344231       2017.7422      510.10357      285702.62    
      7900  -16468048       124851.51     -16343197       2020.0191      902.15382      285702.9     
      8000  -16467411       123140.89     -16344270       1992.3423     -598.0562       286024.29    
      8100  -16469236       123669.82     -16345567       2000.9        -602.8652       285809.27    
      8200  -16469708       122552.89     -16347155       1982.8288      2645.2935      285250.82    
      8300  -16469956       122774.53     -16347182       1986.4147      736.95093      285503.31    
      8400  -16468315       122557.96     -16345757       1982.9108     -1968.4663      285964.89    
      8500  -16467129       123370.74     -16343758       1996.0611     -573.92213      285770.68    
      8600  -16467704       124541.21     -16343163       2014.9986      2484.386       285486.61    
      8700  -16468214       123180.78     -16345033       1992.9876     -163.86387      285867       
      8800  -16469596       122659.78     -16346936       1984.5582     -1633.783       285996.11    
      8900  -16470016       123063.04     -16346953       1991.0827      113.36112      285532.85    
      9000  -16469826       123933.47     -16345893       2005.1657      2093.4032      285371.55    
      9100  -16468146       123808.1      -16344338       2003.1373     -2020.4296      285902.03    
      9200  -16468338       124398.35     -16343940       2012.6871     -327.35529      285901.16    
      9300  -16468288       124028.17     -16344260       2006.6979      1655.7344      285563.92    
      9400  -16468460       122664.22     -16345796       1984.63        464.17246      285612.75    
      9500  -16469097       122026.78     -16347070       1974.3167     -210.88929      285693.03    
      9600  -16469655       122817.34     -16346837       1987.1075      1363.7949      285470.85    
      9700  -16469013       123417.75     -16345595       1996.8217      761.26991      285572.3     
      9800  -16468114       124087.86     -16344026       2007.6636     -1598.8478      285921.6     
      9900  -16467135       123304.18     -16343831       1994.9842     -485.88875      285842.49    
     10000  -16468257       123657.27     -16344599       2000.697       2083.3782      285417.76    
Loop time of 10089.5 on 8 procs for 10000 steps with 20736 atoms

Performance: 0.086 ns/day, 280.265 hours/ns, 0.991 timesteps/s, 20.552 katom-step/s
32.6% CPU use with 8 MPI tasks x 1 OpenMP threads

MPI task timing breakdown:
Section |  min time  |  avg time  |  max time  |%varavg| %total
---------------------------------------------------------------
Pair    | 1101.9     | 1102.6     | 1103.1     |   1.2 | 10.93
Kspace  | 7320.9     | 7426.6     | 7650.1     | 149.9 | 73.61
Neigh   | 6.7893     | 6.9071     | 6.9648     |   2.1 |  0.07
Comm    | 371.49     | 832.25     | 1645.7     |1643.6 |  8.25
Output  | 0.67281    | 0.67292    | 0.67301    |   0.0 |  0.01
Modify  | 5.5849     | 718.32     | 956.04     |1535.4 |  7.12
Other   |            | 2.233      |            |       |  0.02

Nlocal:           2592 ave        2607 max        2574 min
Histogram: 1 0 1 1 1 1 0 1 0 2
Nghost:        10165.1 ave       10197 max       10142 min
Histogram: 1 0 2 2 0 1 1 0 0 1
Neighs:         678716 ave      684596 max      673068 min
Histogram: 1 0 2 1 0 1 1 0 1 1

Total # of neighbors = 5429727
Ave neighs/atom = 261.85026
Neighbor list builds = 381
Dangerous builds = 0

# Unfix the previous fix to prepare for the next loop iteration
unfix 1

# Dump settings will be cleared with the unfix command, so we remove it
undump 1

# Next iteration
next temp
jump SELF loop_temperature

# Set velocities for initial temperature of ${temp} K
velocity all create ${temp} 87287 loop geom
velocity all create 2200 87287 loop geom

# Apply NPT ensemble with P = 1 atm, T = ${temp} K, timestep = 1.0 fs, temperature damping = 100 fs (100x timestep), pressure damping = 1000 fs (1000x timestep)
fix 1 all npt temp ${temp} ${temp} 100.0 aniso 1.0 1.0 1000.0
fix 1 all npt temp 2200 ${temp} 100.0 aniso 1.0 1.0 1000.0
fix 1 all npt temp 2200 2200 100.0 aniso 1.0 1.0 1000.0
thermo 100
thermo_style custom step pe ke etotal temp press vol

# Output dump
dump 1 all custom 100 dump_${temp}K.lammpstrj id element x y z vx vy vz
dump 1 all custom 100 dump_2200K.lammpstrj id element x y z vx vy vz
dump_modify 1 element Ce O

# Run the simulation for 10000 steps
run 10000
Ewald initialization ...
  using 12-bit tables for long-range coulomb (src/kspace.cpp:342)
  G vector (1/distance) = 0.30855462
  estimated absolute RMS force accuracy = 0.04591782
  estimated relative force accuracy = 0.00013828015
  KSpace vectors: actual max1d max3d = 16700 20 34460
                  kxmax kymax kzmax  = 20 20 20
Generated 0 of 1 mixed pair_coeff terms from geometric mixing rule
Per MPI rank memory allocation (min/avg/max) = 42.89 | 42.89 | 42.89 Mbytes
   Step         PotEng         KinEng         TotEng          Temp          Press          Volume    
     10000  -16468252       135975.61     -16332276       2200           4036.7354      285417.76    
     10100  -16460990       131423.71     -16329566       2126.3531      839.52024      286352.41    
     10200  -16457700       132448.53     -16325252       2142.9341     -5053.8438      287555.31    
     10300  -16456406       134699.27     -16321706       2179.3496      457.84234      287018.22    
     10400  -16455241       136319.18     -16318921       2205.5587      3523.7514      286559.59    
     10500  -16453809       136304.02     -16317505       2205.3134      264.09598      287259.71    
     10600  -16452945       136136.88     -16316808       2202.6093     -3531.476       287841.69    
     10700  -16452753       135247.42     -16317506       2188.2183      92.357518      287331.33    
     10800  -16454582       135781.75     -16318800       2196.8634      2280.6116      286856.5     
     10900  -16455808       135677.14     -16320131       2195.1709      353.91087      287195.92    
     11000  -16454097       133603.74     -16320493       2161.6246     -1804.4486      287388.8     
     11100  -16455389       136399.94     -16318989       2206.8654      1048.4585      287038.64    
     11200  -16455075       137065.22     -16318010       2217.6292      920.3486       287063.82    
     11300  -16454163       136721.9      -16317441       2212.0744     -1911.5653      287430.06    
     11400  -16454366       135962.46     -16318403       2199.7872     -244.42321      287320.49    
     11500  -16455636       135871.13     -16319765       2198.3095      432.99097      287060.04    
     11600  -16456166       135281.36     -16320884       2188.7674      189.16458      287019.78    
     11700  -16455867       135668.08     -16320198       2195.0244      144.93533      287109.57    
     11800  -16454380       137035.94     -16317344       2217.1555     -802.93295      287280.01    
     11900  -16454614       136841.14     -16317773       2214.0038      190.91307      287327.24    
     12000  -16454719       136526.97     -16318192       2208.9207     -543.13239      287290.22    
     12100  -16455262       135603.35     -16319659       2193.9771      919.06812      287057.26    
     12200  -16456101       135813.02     -16320288       2197.3693     -368.29037      286970.4     
     12300  -16455559       135941.5      -16319618       2199.448       167.74618      287095.85    
     12400  -16454170       136654.56     -16317516       2210.9849     -888.79628      287341.82    
     12500  -16454622       137143.54     -16317478       2218.8964      64.238372      287197.49    
     12600  -16454257       136262.49     -16317994       2204.6415      345.48195      287072.25    
     12700  -16456017       136185.32     -16319832       2203.393       891.74632      287087.78    
     12800  -16455450       135621.46     -16319828       2194.2701     -683.24764      287216       
     12900  -16454501       135672.52     -16318829       2195.0962     -6.870686       287164.9     
     13000  -16454511       135865.74     -16318645       2198.2223      2140.3101      286987.26    
     13100  -16454236       135996.71     -16318239       2200.3413     -353.44119      287246.79    
     13200  -16452875       134584.02     -16318291       2177.4849      170.69958      287357.19    
     13300  -16454059       136065.54     -16317993       2201.455       1655.6775      287110.29    
     13400  -16452642       136504.21     -16316138       2208.5524      1246.0283      287252.55    
     13500  -16453107       136351.96     -16316755       2206.089      -2097.9771      287579.14    
     13600  -16453332       135066.36     -16318265       2185.2889      916.88063      287235.28    
     13700  -16455782       136186.97     -16319595       2203.4196      2074.0057      286850.95    
     13800  -16455561       135613.52     -16319947       2194.1416      75.803976      287080.75    
     13900  -16455050       136358.64     -16318691       2206.1972     -2304.934       287362.71    
     14000  -16452722       135944.91     -16316777       2199.5033      1009.9881      287210.69    
     14100  -16453723       136487.36     -16317236       2208.2798      1265.9422      287231.72    
     14200  -16454370       136231.4      -16318139       2204.1385     -1428.8223      287460.96    
     14300  -16454952       136122.61     -16318829       2202.3783     -256.92496      287204.54    
     14400  -16455664       136553.1      -16319111       2209.3433      1582.1598      286907.24    
     14500  -16454583       135824.67     -16318759       2197.5579      28.827937      287128.9     
     14600  -16454389       135913.18     -16318476       2198.9898     -910.25464      287416.49    
     14700  -16454255       136341.23     -16317914       2205.9155      1285.2797      287166.04    
     14800  -16452375       136895.25     -16315480       2214.8792      365.80589      287121.04    
     14900  -16452807       137394.31     -16315412       2222.9536     -661.47041      287421.53    
     15000  -16452874       135857.59     -16317016       2198.0904     -1419.5403      287553.68    
     15100  -16454337       136357.65     -16317980       2206.1811      656.21462      287158.08    
     15200  -16455072       135792.37     -16319280       2197.0352      2846.1439      286804.78    
     15300  -16454812       135088.48     -16319724       2185.6467     -243.81734      287115.98    
     15400  -16455009       135848.8      -16319161       2197.9483     -1051.7646      287331.89    
     15500  -16453559       136795.56     -16316764       2213.2662      811.7762       287114.09    
     15600  -16454321       137291.44     -16317029       2221.2893      279.32746      287119.14    
     15700  -16453693       135199.14     -16318494       2187.4372     -793.20028      287299.63    
     15800  -16454535       135312.18     -16319222       2189.2661     -104.6062       287109.39    
     15900  -16456184       136546.89     -16319637       2209.2429      1820.1408      286809.64    
     16000  -16454891       136116.98     -16318774       2202.2872      31.341079      287061.21    
     16100  -16452847       135535.48     -16317311       2192.879      -1767.359       287458.3     
     16200  -16453945       137445.35     -16316499       2223.7794     -489.35248      287354.49    
     16300  -16453771       136125.25     -16317645       2202.4211      955.15489      287143.6     
     16400  -16454891       135829.09     -16319062       2197.6293     -963.25471      287191.22    
     16500  -16454787       135619.23     -16319168       2194.234       909.58012      287101.44    
     16600  -16454578       136041.71     -16318536       2201.0695      141.56717      287170.54    
     16700  -16453507       135802.02     -16317705       2197.1914     -1040.417       287274.32    
     16800  -16454626       137988.06     -16316638       2232.5602      472.6837       287219.74    
     16900  -16452943       137732.34     -16315210       2228.4228      334.28546      287308.08    
     17000  -16453432       135861.72     -16317571       2198.1573     -946.42011      287385.13    
     17100  -16454855       136015.65     -16318839       2200.6479      1773.9767      287094.26    
     17200  -16455800       136335.03     -16319465       2205.8151     -504.0799       287106.73    
     17300  -16455641       135962.14     -16319678       2199.7821     -475.58803      287259.41    
     17400  -16455197       136215.07     -16318982       2203.8743      235.54175      287238.6     
     17500  -16453114       135774.29     -16317340       2196.7428      1204.3153      287335.59    
     17600  -16452946       136333.82     -16316612       2205.7956     -2296.5211      287553.92    
     17700  -16453479       135722.78     -16317756       2195.9093     -5.7675691      287164.73    
     17800  -16455601       136365.18     -16319236       2206.303       1493.9391      286868.49    
     17900  -16455147       135722.24     -16319425       2195.9006     -68.710402      287237.12    
     18000  -16453736       135074.92     -16318661       2185.4274     -2188.0879      287483.65    
     18100  -16453911       136084.42     -16317827       2201.7605      2602.9227      287006.78    
     18200  -16453978       136627.04     -16317351       2210.5397      1495.7362      287070.22    
     18300  -16454521       135582.89     -16318938       2193.646      -2354.953       287523.4     
     18400  -16454980       135210.23     -16319769       2187.6167     -375.75942      287185.78    
     18500  -16456253       136772.9      -16319480       2212.8996      2719.3312      286668.84    
     18600  -16453658       135370.36     -16318287       2190.2075      898.72229      287137.96    
     18700  -16452858       136147.01     -16316711       2202.7731     -2204.3676      287680.86    
     18800  -16452449       137033.1      -16315416       2217.1095     -53.233689      287339.64    
     18900  -16453771       136318.37     -16317453       2205.5456      1910.9183      286978.74    
     19000  -16455132       135737.03     -16319395       2196.1399      1450.2652      287087.13    
     19100  -16455530       136177.17     -16319353       2203.261      -2005.4637      287394.21    
     19200  -16455933       137140.84     -16318792       2218.8527     -377.93636      287102.29    
     19300  -16454288       136083.56     -16318204       2201.7466      1808.5175      286860.87    
     19400  -16453163       135550.47     -16317612       2193.1215     -1664.7652      287325.95    
     19500  -16454478       136217.74     -16318260       2203.9174     -1621.1864      287531.98    
     19600  -16454852       134933.45     -16319919       2183.1384      803.90173      287132.06    
     19700  -16455801       135609.36     -16320192       2194.0742      1732.065       286811.32    
     19800  -16455507       135549.01     -16319958       2193.0979      65.556215      287024.35    
     19900  -16453438       135818.16     -16317620       2197.4526     -807.85656      287453.83    
     20000  -16454052       136951.9      -16317100       2215.7958     -1484.0261      287371.91    
Loop time of 43360.6 on 8 procs for 10000 steps with 20736 atoms

Performance: 0.020 ns/day, 1204.462 hours/ns, 0.231 timesteps/s, 4.782 katom-step/s
7.9% CPU use with 8 MPI tasks x 1 OpenMP threads

MPI task timing breakdown:
Section |  min time  |  avg time  |  max time  |%varavg| %total
---------------------------------------------------------------
Pair    | 1114.3     | 1115.9     | 1117.1     |   3.0 |  2.57
Kspace  | 31759      | 33438      | 35710      | 832.4 | 77.12
Neigh   | 7.8151     | 7.9434     | 8.0289     |   2.6 |  0.02
Comm    | 6513.3     | 8785.5     | 10463      |1624.2 | 20.26
Output  | 0.74678    | 0.7492     | 0.75458    |   0.3 |  0.00
Modify  | 9.5902     | 9.6535     | 9.7403     |   1.7 |  0.02
Other   |            | 3.08       |            |       |  0.01

Nlocal:           2592 ave        2612 max        2563 min
Histogram: 1 0 0 1 1 2 0 1 0 2
Nghost:        10162.8 ave       10197 max       10135 min
Histogram: 1 0 0 3 1 1 1 0 0 1
Neighs:         673746 ave      683947 max      667281 min
Histogram: 3 1 0 0 2 0 0 0 1 1

Total # of neighbors = 5389967
Ave neighs/atom = 259.93282
Neighbor list builds = 421
Dangerous builds = 0

# Unfix the previous fix to prepare for the next loop iteration
unfix 1

# Dump settings will be cleared with the unfix command, so we remove it
undump 1

# Next iteration
next temp
jump SELF loop_temperature

# Set velocities for initial temperature of ${temp} K
velocity all create ${temp} 87287 loop geom
velocity all create 2400 87287 loop geom

# Apply NPT ensemble with P = 1 atm, T = ${temp} K, timestep = 1.0 fs, temperature damping = 100 fs (100x timestep), pressure damping = 1000 fs (1000x timestep)
fix 1 all npt temp ${temp} ${temp} 100.0 aniso 1.0 1.0 1000.0
fix 1 all npt temp 2400 ${temp} 100.0 aniso 1.0 1.0 1000.0
fix 1 all npt temp 2400 2400 100.0 aniso 1.0 1.0 1000.0
thermo 100
thermo_style custom step pe ke etotal temp press vol

# Output dump
dump 1 all custom 100 dump_${temp}K.lammpstrj id element x y z vx vy vz
dump 1 all custom 100 dump_2400K.lammpstrj id element x y z vx vy vz
dump_modify 1 element Ce O

# Run the simulation for 10000 steps
run 10000
Ewald initialization ...
  using 12-bit tables for long-range coulomb (src/kspace.cpp:342)
  G vector (1/distance) = 0.30849933
  estimated absolute RMS force accuracy = 0.043172374
  estimated relative force accuracy = 0.00013001232
  KSpace vectors: actual max1d max3d = 19301 21 39753
                  kxmax kymax kzmax  = 20 21 20
Generated 0 of 1 mixed pair_coeff terms from geometric mixing rule
Per MPI rank memory allocation (min/avg/max) = 45.01 | 45.01 | 45.01 Mbytes
   Step         PotEng         KinEng         TotEng          Temp          Press          Volume    
     20000  -16454053       148337.03     -16305716       2400           325.84989      287371.91    
     20100  -16446547       143758.68     -16302788       2325.9252      1696.0339      287835.85    
     20200  -16443091       144379.62     -16298711       2335.9716     -1525.9102      288735.83    
     20300  -16439943       145345.34     -16294598       2351.5963     -1178.9898      288880.61    
     20400  -16439686       148238.7      -16291447       2398.409       21.30917       288530.41    
     20500  -16438834       148851.07     -16289983       2408.3168      1559.3441      288544.21    
     20600  -16439171       148812.78     -16290358       2407.6972     -1246.3007      288995.49    
     20700  -16439266       147755.4      -16291511       2390.5896     -2189.6657      289009.53    
     20800  -16440604       148301.5      -16292302       2399.4252      1477.3024      288517.34    
     20900  -16440372       147575.96     -16292796       2387.6863      1039.0704      288375.03    
     21000  -16439715       146967.26     -16292748       2377.838       674.81068      288688.48    
     21100  -16439334       147929.14     -16291405       2393.4006     -771.36166      288896.95    
     21200  -16438461       148197.41     -16290263       2397.741       1249.6598      288678.85    
     21300  -16440024       149606.56     -16290417       2420.5402      509.50727      288604.89    
     21400  -16439646       147233.11     -16292413       2382.1393      264.07441      288640.47    
     21500  -16440421       147786.5      -16292634       2391.0927     -43.083735      288639.01    
     21600  -16441052       148840.04     -16292212       2408.1383     -502.49018      288552.27    
     21700  -16439956       148303.71     -16291652       2399.4609      1029.3912      288512.63    
     21800  -16437520       147768.96     -16289751       2390.809       12.855399      288828.56    
     21900  -16438931       150349.05     -16288582       2432.5531     -1469.9879      289106.68    
     22000  -16438627       148722        -16289905       2406.2286      314.37052      288952.95    
     22100  -16439863       148743.24     -16291120       2406.5722      799.43198      288675.42    
     22200  -16441442       149760.48     -16291681       2423.0304      368.92556      288564.78    
     22300  -16440592       148267.9      -16292324       2398.8815      29.674367      288730.3     
     22400  -16440409       147598.33     -16292811       2388.0482     -1607.1359      288875.36    
     22500  -16439379       147975.34     -16291403       2394.148       1956.5156      288561.65    
     22600  -16438922       148944.94     -16289977       2409.8355      765.86568      288503.29    
     22700  -16439667       149110.82     -16290556       2412.5195     -2276.9416      288884.17    
     22800  -16438872       146788.6      -16292084       2374.9473     -1201.9764      288933.03    
     22900  -16440593       147938.29     -16292655       2393.5485      1110.0476      288454.73    
     23000  -16440507       148433.57     -16292074       2401.562       2413.9901      288233.65    
     23100  -16438009       148462.13     -16289547       2402.024       2109.1954      288707.07    
     23200  -16438254       149319.41     -16288935       2415.8942     -4222.9196      289443.5     
     23300  -16438532       148277.9      -16290254       2399.0433     -1991.1573      289001.9     
     23400  -16440338       148307.13     -16292030       2399.5162      4656.4577      287966.15    
     23500  -16440892       147986.33     -16292905       2394.3259      1829.2816      288230.34    
     23600  -16439909       146963.34     -16292945       2377.7745     -4204.3678      289152.92    
     23700  -16440452       149354.93     -16291097       2416.469      -244.64408      288938.9     
     23800  -16439369       148979.25     -16290390       2410.3907      1622.7812      288440.05    
     23900  -16440621       149532.86     -16291088       2419.3477      63.435913      288512.43    
     24000  -16440977       148700.9      -16292276       2405.8871     -1536.3309      288826.08    
     24100  -16439838       147112.7      -16292726       2380.1911     -732.73703      288751.85    
     24200  -16439965       147962.53     -16292003       2393.9408      1784.162       288424.24    
     24300  -16438763       148912.62     -16289851       2409.3127      298.34229      288613.53    
     24400  -16438723       148671.09     -16290052       2405.4049     -2104.6486      288974.06    
     24500  -16438935       147515.67     -16291420       2386.7109     -574.6824       288877.86    
     24600  -16440291       147774.77     -16292517       2390.9029      1013.1984      288608.2     
     24700  -16441009       148465.5      -16292543       2402.0786     -158.23734      288550.67    
     24800  -16440323       148097.48     -16292225       2396.1242      711.55189      288612.9     
     24900  -16440606       148704.27     -16291901       2405.9417     -421.14651      288746.17    
     25000  -16437885       146576.8      -16291308       2371.5205      156.17379      288749.94    
     25100  -16439445       149239.14     -16290206       2414.5955      795.3471       288726.15    
     25200  -16438586       150041.4      -16288545       2427.5756      142.5086       288841.67    
     25300  -16438290       149231.16     -16289059       2414.4665     -230.40463      289057.98    
     25400  -16438881       147490.27     -16291390       2386.3        -1259.2693      289003.18    
     25500  -16440591       148726.96     -16291864       2406.3088      826.72951      288573.67    
     25600  -16440650       148482.82     -16292167       2402.3588      959.68517      288446.65    
     25700  -16441201       148760.34     -16292441       2406.8489     -577.24311      288676.54    
     25800  -16441392       149462.84     -16291929       2418.2148     -991.71469      288845.43    
     25900  -16439793       149456.3      -16290337       2418.1091     -83.211668      288746.77    
     26000  -16439159       149302.69     -16289856       2415.6237      1163.4029      288609.93    
     26100  -16440598       149159.76     -16291438       2413.3112     -1618.6274      288716.87    
     26200  -16441082       148331.35     -16292751       2399.9081     -925.55469      288713.29    
     26300  -16440010       147485.34     -16292525       2386.2202      462.30316      288629.74    
     26400  -16439826       148534.97     -16291291       2403.2025     -589.51058      288726.4     
     26500  -16438988       148715.4      -16290273       2406.1218     -1041.0235      288848       
     26600  -16439557       149009.59     -16290547       2410.8816      829.04536      288742.71    
     26700  -16440647       147535.2      -16293112       2387.0269     -1091.9082      288756.58    
     26800  -16441463       147970.73     -16293492       2394.0735     -575.08704      288600.07    
     26900  -16439876       147411.34     -16292464       2385.0229      1407.8617      288459.26    
     27000  -16440111       149130        -16290981       2412.8298      479.21644      288754.38    
     27100  -16438486       148012.87     -16290473       2394.7553     -2054.3715      289136.32    
     27200  -16438549       147926.92     -16290622       2393.3647     -25.662931      288921.17    
     27300  -16440360       149145.3      -16291215       2413.0772      1519.2734      288512.47    
     27400  -16439255       147397.6      -16291858       2384.8006      300.91724      288562.53    
     27500  -16439305       146959.53     -16292346       2377.7129     -1169.4896      288734.57    
     27600  -16440443       148016.83     -16292426       2394.8193     -813.60161      288609.94    
     27700  -16440634       149136.98     -16291497       2412.9426      1210.7917      288503.16    
     27800  -16438793       148178.78     -16290615       2397.4396      340.31752      288799.73    
     27900  -16438946       148785.74     -16290160       2407.2599     -2032.7144      289038.52    
     28000  -16439106       148308.57     -16290797       2399.5395      293.79569      288876.74    
     28100  -16439662       146935.27     -16292727       2377.3204     -14.666177      288617.55    
     28200  -16441410       148038.42     -16293372       2395.1687      1593.3538      288303.76    
     28300  -16440171       147251.25     -16292920       2382.4327      1431.5208      288491.45    
     28400  -16438990       147760.59     -16291230       2390.6736     -941.85454      289086.85    
     28500  -16437858       148037.52     -16289820       2395.154      -265.47521      289094.16    
     28600  -16439623       149306.66     -16290317       2415.688       440.19578      288676.42    
     28700  -16440642       148941.33     -16291701       2409.7772      1480.7736      288534.19    
     28800  -16441653       148728.7      -16292924       2406.3369     -1215.0392      288786.42    
     28900  -16441067       148266.17     -16292801       2398.8535     -56.599163      288759.46    
     29000  -16439050       148229.66     -16290820       2398.2628      3.9743057      288761.11    
     29100  -16438459       148337.86     -16290121       2400.0134     -501.22635      288834.04    
     29200  -16439402       148641.93     -16290760       2404.933      -611.30881      288813.92    
     29300  -16439946       147965.27     -16291980       2393.9852      1165.453       288654.36    
     29400  -16441514       148724.73     -16292789       2406.2728      184.19513      288733.21    
     29500  -16440593       148285.59     -16292308       2399.1676      135.99913      288767.41    
     29600  -16439017       149545.89     -16289471       2419.5585      83.87137       288745.36    
     29700  -16439302       149541.28     -16289761       2419.4839     -790.23751      288876.44    
     29800  -16439748       148523.18     -16291225       2403.0117     -1497.546       288896.29    
     29900  -16440164       147842.32     -16292322       2391.9959      9.4259967      288669.38    
     30000  -16440242       147827.32     -16292414       2391.7532      1303.6205      288476.46    
Loop time of 18939.9 on 8 procs for 10000 steps with 20736 atoms

Performance: 0.046 ns/day, 526.108 hours/ns, 0.528 timesteps/s, 10.948 katom-step/s
18.7% CPU use with 8 MPI tasks x 1 OpenMP threads

MPI task timing breakdown:
Section |  min time  |  avg time  |  max time  |%varavg| %total
---------------------------------------------------------------
Pair    | 1111.2     | 1115.5     | 1118.9     |   8.2 |  5.89
Kspace  | 15207      | 15423      | 16863      | 438.2 | 81.43
Neigh   | 6.476      | 6.6849     | 6.8682     |   5.4 |  0.04
Comm    | 943.11     | 2384.6     | 2597.1     |1115.7 | 12.59
Output  | 0.657      | 0.65742    | 0.65944    |   0.1 |  0.00
Modify  | 6.3639     | 6.9959     | 7.1152     |   9.1 |  0.04
Other   |            | 2.664      |            |       |  0.01

Nlocal:           2592 ave        2607 max        2582 min
Histogram: 2 0 2 0 2 0 0 0 1 1
Nghost:        10173.8 ave       10191 max       10148 min
Histogram: 1 0 1 0 0 1 2 1 0 2
Neighs:         670768 ave      686646 max      656684 min
Histogram: 2 0 2 0 0 0 1 2 0 1

Total # of neighbors = 5366141
Ave neighs/atom = 258.78381
Neighbor list builds = 448
Dangerous builds = 0

# Unfix the previous fix to prepare for the next loop iteration
unfix 1

# Dump settings will be cleared with the unfix command, so we remove it
undump 1

# Next iteration
next temp
jump SELF loop_temperature

# Set velocities for initial temperature of ${temp} K
velocity all create ${temp} 87287 loop geom
velocity all create 2600 87287 loop geom

# Apply NPT ensemble with P = 1 atm, T = ${temp} K, timestep = 1.0 fs, temperature damping = 100 fs (100x timestep), pressure damping = 1000 fs (1000x timestep)
fix 1 all npt temp ${temp} ${temp} 100.0 aniso 1.0 1.0 1000.0
fix 1 all npt temp 2600 ${temp} 100.0 aniso 1.0 1.0 1000.0
fix 1 all npt temp 2600 2600 100.0 aniso 1.0 1.0 1000.0
thermo 100
thermo_style custom step pe ke etotal temp press vol

# Output dump
dump 1 all custom 100 dump_${temp}K.lammpstrj id element x y z vx vy vz
dump 1 all custom 100 dump_2600K.lammpstrj id element x y z vx vy vz
dump_modify 1 element Ce O

# Run the simulation for 10000 steps
run 10000
Ewald initialization ...
  using 12-bit tables for long-range coulomb (src/kspace.cpp:342)
  G vector (1/distance) = 0.30846824
  estimated absolute RMS force accuracy = 0.035444245
  estimated relative force accuracy = 0.00010673929
  KSpace vectors: actual max1d max3d = 19455 21 39753
                  kxmax kymax kzmax  = 21 21 21
Generated 0 of 1 mixed pair_coeff terms from geometric mixing rule
Per MPI rank memory allocation (min/avg/max) = 45.01 | 45.01 | 45.01 Mbytes
   Step         PotEng         KinEng         TotEng          Temp          Press          Volume    
     30000  -16440242       160698.45     -16279543       2600           3342.614       288476.46    
     30100  -16431398       154928.3      -16276470       2506.6426      1026.0265      289328.48    
     30200  -16428252       156133.32     -16272118       2526.1391     -4843.8135      290541.61    
     30300  -16426606       159071.29     -16267535       2573.6736     -2072.0455      290494.69    
     30400  -16425300       160899.19     -16264401       2603.2478      2878.8482      289880       
     30500  -16424803       162012.25     -16262791       2621.2565      2601.1945      290007.97    
     30600  -16423519       159738.95     -16263780       2584.4759     -1227.7626      290665.8     
     30700  -16425329       160638.78     -16264690       2599.0345     -2461.5064      290662.69    
     30800  -16426324       161045.98     -16265278       2605.6229      1645.4806      289892.65    
     30900  -16425927       160281.1      -16265646       2593.2476      3481.574       289754.36    
     31000  -16426028       160231.28     -16265797       2592.4415     -1677.4614      290409.38    
     31100  -16426050       161362.66     -16264687       2610.7464     -2868.1358      290628.34    
     31200  -16425024       161820.78     -16263203       2618.1587      618.96443      290266.31    
     31300  -16425286       162209.68     -16263076       2624.4508      756.56256      290188.2     
     31400  -16425250       160323.27     -16264927       2593.9298     -1102.2066      290393.01    
     31500  -16425692       159829.58     -16265862       2585.9422     -901.8049       290332.25    
     31600  -16425551       160003.06     -16265548       2588.749       1768.8179      290029.08    
     31700  -16426200       161133.62     -16265066       2607.0408      1701.3333      290091.61    
     31800  -16424127       159547.17     -16264579       2581.3729     -1010.0818      290471.33    
     31900  -16424209       161205.65     -16263003       2608.2062     -1459.7986      290623.34    
     32000  -16422627       162109.84     -16260517       2622.8353      886.14024      290512.34    
     32100  -16424282       162711.42     -16261571       2632.5686     -1704.2476      290566.42    
     32200  -16424217       161030.15     -16263186       2605.3667     -569.99799      290481.64    
     32300  -16425077       160444.72     -16264632       2595.8949      1125.4362      290169.24    
     32400  -16426587       161055.53     -16265532       2605.7773      694.5176       290058.51    
     32500  -16426350       160402.08     -16265948       2595.2049      139.22228      290194.43    
     32600  -16425126       161126.04     -16264000       2606.9181     -909.67502      290492.35    
     32700  -16425117       162717.75     -16262399       2632.6711     -426.41071      290456.35    
     32800  -16425146       162190.16     -16262955       2624.1349     -519.60859      290243.32    
     32900  -16426270       161723.87     -16264547       2616.5907      464.96082      290161.93    
     33000  -16425664       160139.63     -16265525       2590.9587      38.235454      290261.81    
     33100  -16426235       160892.83     -16265342       2603.1449     -806.49334      290281.99    
     33200  -16424809       160233.92     -16264575       2592.4841      1102.9268      290203.86    
     33300  -16423963       160125.66     -16263837       2590.7326     -241.16028      290369.06    
     33400  -16423991       160257.38     -16263733       2592.8637     -148.86332      290348.59    
     33500  -16426552       160348.71     -16266203       2594.3414      19.945784      290144.21    
     33600  -16427833       160465.28     -16267368       2596.2275     -273.78781      290017.46    
     33700  -16425969       159840.35     -16266129       2586.1165      908.27301      289995.44    
     33800  -16425604       161245.33     -16264359       2608.8482     -46.255643      290195.95    
     33900  -16425550       162101.86     -16263448       2622.7062     -1411.6644      290442.38    
     34000  -16425183       161511.78     -16263671       2613.1592     -704.95189      290477.11    
     34100  -16426433       160857.9      -16265575       2602.5798     -995.51174      290283.27    
     34200  -16427552       160592.59     -16266959       2598.2872      1008.6698      289907.94    
     34300  -16426235       159846        -16266389       2586.2078      1333.4827      289909.9     
     34400  -16425554       160237.76     -16265316       2592.5463     -50.411021      290261.24    
     34500  -16424276       159426.07     -16264850       2579.4136      167.0774       290487       
     34600  -16424883       160690.74     -16264192       2599.8753     -660.20275      290372.68    
     34700  -16425103       161599.82     -16263503       2614.5836      1331.8338      290077.62    
     34800  -16424527       160842.99     -16263684       2602.3385      390.70231      290196.05    
     34900  -16425321       159449.31     -16265872       2579.7897     -812.77083      290509.67    
     35000  -16425645       159440        -16266205       2579.639      -417.72736      290409.66    
     35100  -16424758       159981.44     -16264777       2588.3993      2955.4597      290040.15    
     35200  -16425038       161469.6      -16263568       2612.4767      1463.3607      290224.12    
     35300  -16425997       162409.82     -16263587       2627.6888     -2363.084       290792.82    
     35400  -16425111       161383.86     -16263727       2611.0896     -2103.2821      290772.79    
     35500  -16425941       162067.08     -16263874       2622.1435      983.9172       290150.93    
     35600  -16425553       159284.72     -16266268       2577.1268      2171.3771      289905.02    
     35700  -16426673       159604.1      -16267069       2582.2941     -136.88474      290237.1     
     35800  -16426977       161066.17     -16265911       2605.9494     -1089.5504      290256.76    
     35900  -16424739       159846.41     -16264892       2586.2146      2177.0788      290068.36    
     36000  -16424797       160275.88     -16264521       2593.163      -569.63068      290365.55    
     36100  -16425312       161100.43     -16264212       2606.5037     -1387.11        290680.36    
     36200  -16424407       160563.09     -16263844       2597.81       -1191.4743      290446.99    
     36300  -16424833       160757.78     -16264075       2600.9599      2983.9052      289860.57    
     36400  -16426748       160179.72     -16266569       2591.6073      56.85424       290121.54    
     36500  -16425987       158969.28     -16267017       2572.0231     -3055.6634      290469.02    
     36600  -16425501       160406.3      -16265095       2595.2731      451.02421      290133.85    
     36700  -16423595       159571.42     -16264024       2581.7654      2398.839       290011.29    
     36800  -16425230       161238.71     -16263991       2608.741      -1203.9598      290422.75    
     36900  -16425349       160463.69     -16264885       2596.2017     -1255.6585      290585.79    
     37000  -16426596       160001.11     -16266594       2588.7174     -770.7592       290248.73    
     37100  -16427034       159627.44     -16267407       2582.6718      2129.191       289676.91    
     37200  -16426763       160712.29     -16266051       2600.2239      2307.9016      289751.37    
     37300  -16425373       161454.64     -16263919       2612.2347     -1240.3642      290417.57    
     37400  -16424905       161308.2      -16263597       2609.8654     -1572.161       290757.28    
     37500  -16425156       161322.39     -16263834       2610.095      -814.8133       290380.62    
     37600  -16425948       161002.68     -16264945       2604.9222      3313.0166      289881.43    
     37700  -16426866       159697.99     -16267168       2583.8132      364.41216      290105.62    
     37800  -16426888       160193        -16266695       2591.8221     -1963.3238      290511.12    
     37900  -16425063       159943.36     -16265120       2587.7831     -502.483        290448.85    
     38000  -16425269       160997.02     -16264272       2604.8307      924.67724      290187.16    
     38100  -16425245       160717.4      -16264527       2600.3066      1318.2042      290104.72    
     38200  -16426012       160847.47     -16265165       2602.4111     -891.83399      290286.88    
     38300  -16427091       160200.37     -16266891       2591.9414     -142.55301      290214.03    
     38400  -16426723       159278.99     -16267444       2577.0341      505.43006      290060.99    
     38500  -16427008       161994.33     -16265014       2620.9665      821.27495      290033.56    
     38600  -16423775       159922.82     -16263852       2587.4508      366.81657      290400.28    
     38700  -16423710       160217.78     -16263493       2592.223      -1294.6235      290717.33    
     38800  -16425510       162103.79     -16263406       2622.7376      404.70436      290367.81    
     38900  -16426330       161026.21     -16265304       2605.303       761.92913      290064.57    
     39000  -16426223       159405.97     -16266817       2579.0884      225.84155      290181.59    
     39100  -16425833       159868.38     -16265965       2586.57        480.27659      290312.64    
     39200  -16425314       160603.41     -16264711       2598.4623      562.61367      290285.06    
     39300  -16425466       161216.07     -16264250       2608.3747      1943.3234      290204.36    
     39400  -16424506       160097.05     -16264409       2590.2696      156.14309      290390.49    
     39500  -16426245       161447.88     -16264797       2612.1253     -1294.05        290539.5     
     39600  -16426112       160492.92     -16265619       2596.6746     -58.856959      290273.49    
     39700  -16426363       159822.77     -16266540       2585.8321      1304.0801      289830.09    
     39800  -16426286       159773.21     -16266512       2585.0301      1532.8807      289953.02    
     39900  -16424807       160196.44     -16264610       2591.8778     -853.25628      290587.87    
     40000  -16423643       160414.78     -16263228       2595.4104     -1168.1199      290786.02    
Loop time of 3867.38 on 8 procs for 10000 steps with 20736 atoms

Performance: 0.223 ns/day, 107.427 hours/ns, 2.586 timesteps/s, 53.618 katom-step/s
91.2% CPU use with 8 MPI tasks x 1 OpenMP threads

MPI task timing breakdown:
Section |  min time  |  avg time  |  max time  |%varavg| %total
---------------------------------------------------------------
Pair    | 117.67     | 121.95     | 125.43     |  23.3 |  3.15
Kspace  | 3142.3     | 3222       | 3718.9     | 331.0 | 83.31
Neigh   | 6.7695     | 6.9324     | 7.0793     |   3.9 |  0.18
Comm    | 8.082      | 507.29     | 583.37     | 837.8 | 13.12
Output  | 0.64109    | 0.64125    | 0.64137    |   0.0 |  0.02
Modify  | 5.4389     | 6.0525     | 6.2194     |   9.6 |  0.16
Other   |            | 2.53       |            |       |  0.07

Nlocal:           2592 ave        2618 max        2580 min
Histogram: 2 2 1 1 0 0 1 0 0 1
Nghost:          10163 ave       10179 max       10126 min
Histogram: 1 0 0 0 1 0 1 1 2 2
Neighs:         664802 ave      679316 max      652118 min
Histogram: 1 2 1 0 0 0 2 0 1 1

Total # of neighbors = 5318413
Ave neighs/atom = 256.48211
Neighbor list builds = 470
Dangerous builds = 0

# Unfix the previous fix to prepare for the next loop iteration
unfix 1

# Dump settings will be cleared with the unfix command, so we remove it
undump 1

# Next iteration
next temp
jump SELF loop_temperature

# Set velocities for initial temperature of ${temp} K
velocity all create ${temp} 87287 loop geom
velocity all create 2800 87287 loop geom

# Apply NPT ensemble with P = 1 atm, T = ${temp} K, timestep = 1.0 fs, temperature damping = 100 fs (100x timestep), pressure damping = 1000 fs (1000x timestep)
fix 1 all npt temp ${temp} ${temp} 100.0 aniso 1.0 1.0 1000.0
fix 1 all npt temp 2800 ${temp} 100.0 aniso 1.0 1.0 1000.0
fix 1 all npt temp 2800 2800 100.0 aniso 1.0 1.0 1000.0
thermo 100
thermo_style custom step pe ke etotal temp press vol

# Output dump
dump 1 all custom 100 dump_${temp}K.lammpstrj id element x y z vx vy vz
dump 1 all custom 100 dump_2800K.lammpstrj id element x y z vx vy vz
dump_modify 1 element Ce O

# Run the simulation for 10000 steps
run 10000
Ewald initialization ...
  using 12-bit tables for long-range coulomb (src/kspace.cpp:342)
  G vector (1/distance) = 0.30840361
  estimated absolute RMS force accuracy = 0.035663491
  estimated relative force accuracy = 0.00010739954
  KSpace vectors: actual max1d max3d = 19455 21 39753
                  kxmax kymax kzmax  = 21 21 21
Generated 0 of 1 mixed pair_coeff terms from geometric mixing rule
Per MPI rank memory allocation (min/avg/max) = 45.01 | 45.01 | 45.01 Mbytes
   Step         PotEng         KinEng         TotEng          Temp          Press          Volume    
     40000  -16423643       173059.87     -16250583       2800           818.68536      290786.02    
     40100  -16415524       168034.37     -16247489       2718.6905      1673.4307      291080.27    
     40200  -16413912       170423.25     -16243489       2757.3412     -823.11173      291751.02    
     40300  -16411442       171792.8      -16239649       2779.4996     -1273.1003      291993.17    
     40400  -16411483       174844.44     -16236639       2828.8732      559.74234      291765.15    
     40500  -16410128       174586.1      -16235542       2824.6934      1628.403       291651.1     
     40600  -16409996       173471.22     -16236525       2806.6554     -158.98885      292047.64    
     40700  -16410498       172764.24     -16237734       2795.2169     -3206.5373      292326.36    
     40800  -16410506       172130.78     -16238376       2784.968       844.26316      291844.92    
     40900  -16411681       173540.6      -16238141       2807.7779      3122.1056      291398.94    
     41000  -16410251       172328.26     -16237922       2788.163       630.06777      291860.77    
     41100  -16409782       173710.53     -16236071       2810.5272     -3540.9173      292465.29    
     41200  -16409767       174777.88     -16234990       2827.7963     -874.63055      292126.58    
     41300  -16409679       173878.64     -16235800       2813.2472      2093.0851      291547.3     
     41400  -16411344       172963.96     -16238380       2798.4482      2726.1799      291527.64    
     41500  -16412032       173501.97     -16238530       2807.153      -1920.4226      292034.4     
     41600  -16409714       172512.73     -16237201       2791.1476     -2202.7682      292172.96    
     41700  -16409809       173999.6      -16235809       2815.2042      1071.6245      291822.06    
     41800  -16409810       173984.14     -16235826       2814.9541      828.24496      291764.09    
     41900  -16411758       173587.46     -16238171       2808.5361     -1388.5867      292079.9     
     42000  -16411017       172286.26     -16238731       2787.4836     -700.96071      292079.54    
     42100  -16410841       172887.66     -16237954       2797.2137      1935.6981      291799.28    
     42200  -16410111       173009.19     -16237102       2799.1801      729.1569       291833.48    
     42300  -16408990       172609.34     -16236381       2792.7108     -1065.4072      291968.52    
     42400  -16410163       173639.55     -16236523       2809.3788     -782.8483       291853.9     
     42500  -16410462       172500.89     -16237961       2790.9561      846.23917      291742.83    
     42600  -16411423       172305.1      -16239118       2787.7882     -706.17718      291780.59    
     42700  -16410953       172130.73     -16238822       2784.9671      192.37066      291714.26    
     42800  -16410627       173964.72     -16236662       2814.6399      1321.9059      291771.21    
     42900  -16408618       172819.63     -16235798       2796.1131     -215.05867      292024.93    
     43000  -16409161       172969.07     -16236192       2798.5309     -590.17455      292113.76    
     43100  -16410019       173224.34     -16236795       2802.661      -84.414956      291880.89    
     43200  -16409319       171929.55     -16237389       2781.7122      1690.3293      291534.07    
     43300  -16411836       174070.91     -16237765       2816.358      -172.04701      291613.36    
     43400  -16410659       172651.3      -16238007       2793.3896     -174.43827      291882.96    
     43500  -16409207       172610.41     -16236596       2792.728      -545.45406      292121.84    
     43600  -16407730       173394.07     -16234336       2805.4071     -35.990618      292099.45    
     43700  -16409573       174474.32     -16235098       2822.8849      720.23039      292092.4     
     43800  -16410346       173545.94     -16236800       2807.8644     -1401.4881      292138.1     
     43900  -16412552       175226.56     -16237326       2835.0557     -2598.1663      292000.43    
     44000  -16410409       172916.81     -16237493       2797.6853      1636.7987      291763.97    
     44100  -16410593       172971.95     -16237621       2798.5775      688.64654      291880.72    
     44200  -16410029       172271.64     -16237757       2787.247      -985.39542      291985.05    
     44300  -16410524       173142.78     -16237381       2801.3415      703.51203      291810.57    
     44400  -16410349       173818.88     -16236530       2812.2803      1040.003       291721.87    
     44500  -16409396       172972.12     -16236424       2798.5802      118.07375      291826.9     
     44600  -16410071       172755.88     -16237315       2795.0817     -365.30424      291975.37    
     44700  -16411341       172578.69     -16238763       2792.2149     -1159.6734      291936.47    
     44800  -16411513       172405.71     -16239108       2789.4161      330.33959      291680.47    
     44900  -16409777       172784.53     -16236993       2795.5452      1010.2812      291592.13    
     45000  -16408928       173243.11     -16235685       2802.9647      342.16687      291920.28    
     45100  -16409236       173075.25     -16236161       2800.2488     -705.49484      292223.45    
     45200  -16410611       173306.03     -16237305       2803.9827     -398.19435      292060.37    
     45300  -16411372       171967.8      -16239404       2782.3309     -754.93202      291790.1     
     45400  -16411688       170947.14     -16240741       2765.8173      1476.1415      291480.65    
     45500  -16410855       172009.69     -16238845       2783.0087      1638.8237      291554.39    
     45600  -16410363       173318.37     -16237044       2804.1824     -1252.1688      291922.03    
     45700  -16410171       173753.11     -16236418       2811.2162     -2547.9102      292142.96    
     45800  -16409819       173411.76     -16236407       2805.6934      189.85539      291929.6     
     45900  -16410099       173032.86     -16237067       2799.5631      1163.1809      291714.58    
     46000  -16412152       173526.65     -16238625       2807.5522      416.29523      291850.25    
     46100  -16411742       172293.96     -16239448       2787.6081     -2128.6983      292082.07    
     46200  -16409944       172795.69     -16237148       2795.7257     -427.94238      291846.28    
     46300  -16409807       173763.82     -16236044       2811.3894      2396.7758      291541.79    
     46400  -16409262       172437.18     -16236824       2789.9252      978.35256      291871.4     
     46500  -16409183       171171.78     -16238012       2769.4518     -2453.4776      292270.6     
     46600  -16410075       172199.89     -16237875       2786.086      -1301.7695      292101.58    
     46700  -16408540       173407.81     -16235132       2805.6294      3533.78        291635.48    
     46800  -16409203       174115.7      -16235087       2817.0826      1495.6098      291870.48    
     46900  -16408027       171700.14     -16236326       2778.0005     -2905.0259      292483       
     47000  -16409947       173106.62     -16236841       2800.7563     -1815.3445      292252.57    
     47100  -16410119       172971.8      -16237147       2798.575       1878.7368      291406.17    
     47200  -16412390       172660.1      -16239730       2793.5319      3536.6528      291147.71    
     47300  -16412963       171997.94     -16240965       2782.8186     -633.69277      291832.84    
     47400  -16411736       172693.65     -16239042       2794.0749     -3092.6561      292258.7     
     47500  -16409712       172507.25     -16237204       2791.0589      878.67464      291853.24    
     47600  -16410512       174341.33     -16236171       2820.7333      2269.6481      291468.49    
     47700  -16412256       175143.53     -16237112       2833.7124     -61.589914      291750.71    
     47800  -16410550       171663.35     -16238887       2777.4053     -1680.1021      292228.49    
     47900  -16411151       173003.29     -16238148       2799.0846     -2502.264       292238.68    
     48000  -16411230       174033.67     -16237197       2815.7556      1820.779       291588.25    
     48100  -16409847       172444.11     -16237403       2790.0374      3183.7521      291283.62    
     48200  -16410601       172730.78     -16237870       2794.6756     -538.40604      291778.43    
     48300  -16411343       173059.49     -16238284       2799.9939     -2201.399       292215.92    
     48400  -16410721       173507.86     -16237213       2807.2483     -988.23341      291957.66    
     48500  -16409377       173882.15     -16235495       2813.3039      2380.1804      291682.18    
     48600  -16409839       174454.16     -16235385       2822.5587     -950.09776      291915.51    
     48700  -16410799       173080.15     -16237719       2800.3282     -822.51258      292093.65    
     48800  -16410112       171349.75     -16238762       2772.3313     -636.9134       291969.86    
     48900  -16411529       173368.81     -16238160       2804.9984     -440.07095      291744.14    
     49000  -16410193       172738.18     -16237454       2794.7953      1080.9288      291587.44    
     49100  -16411582       175140.58     -16236442       2833.6646      507.21585      291821.79    
     49200  -16410469       175760.29     -16234709       2843.6911     -1401.0869      292237.75    
     49300  -16408281       174356.9      -16233924       2820.9851     -893.59087      292331.09    
     49400  -16410478       174655.58     -16235822       2825.8175     -319.82326      292001.49    
     49500  -16411009       173428.85     -16237580       2805.9699      644.91099      291545.73    
     49600  -16410882       172583.07     -16238299       2792.2857      2000.3056      291515.74    
     49700  -16411023       172450.39     -16238573       2790.139       76.751052      291892.07    
     49800  -16410294       173379.36     -16236915       2805.1692     -1595.9404      292078.95    
     49900  -16410038       174813.89     -16235224       2828.379       1323.6182      291755.73    
     50000  -16408342       172393.16     -16235949       2789.213       1089.0206      291783.26    
Loop time of 3630.02 on 8 procs for 10000 steps with 20736 atoms

Performance: 0.238 ns/day, 100.834 hours/ns, 2.755 timesteps/s, 57.124 katom-step/s
97.9% CPU use with 8 MPI tasks x 1 OpenMP threads

MPI task timing breakdown:
Section |  min time  |  avg time  |  max time  |%varavg| %total
---------------------------------------------------------------
Pair    | 118.71     | 123.05     | 126.26     |  25.5 |  3.39
Kspace  | 2889.2     | 2969.2     | 3467       | 345.4 | 81.80
Neigh   | 7.1925     | 7.39       | 7.5738     |   4.9 |  0.20
Comm    | 19.783     | 520.68     | 597.59     | 829.8 | 14.34
Output  | 0.65968    | 0.65981    | 0.65995    |   0.0 |  0.02
Modify  | 5.7685     | 6.3449     | 6.5264     |   9.1 |  0.17
Other   |            | 2.651      |            |       |  0.07

Nlocal:           2592 ave        2613 max        2563 min
Histogram: 1 0 0 0 1 2 2 0 1 1
Nghost:          10166 ave       10202 max       10150 min
Histogram: 2 2 1 1 0 1 0 0 0 1
Neighs:         662378 ave      680118 max      645935 min
Histogram: 2 0 1 0 0 1 2 1 0 1

Total # of neighbors = 5299026
Ave neighs/atom = 255.54716
Neighbor list builds = 496
Dangerous builds = 0

# Unfix the previous fix to prepare for the next loop iteration
unfix 1

# Dump settings will be cleared with the unfix command, so we remove it
undump 1

# Next iteration
next temp
jump SELF loop_temperature

# Set velocities for initial temperature of ${temp} K
velocity all create ${temp} 87287 loop geom
velocity all create 3000 87287 loop geom

# Apply NPT ensemble with P = 1 atm, T = ${temp} K, timestep = 1.0 fs, temperature damping = 100 fs (100x timestep), pressure damping = 1000 fs (1000x timestep)
fix 1 all npt temp ${temp} ${temp} 100.0 aniso 1.0 1.0 1000.0
fix 1 all npt temp 3000 ${temp} 100.0 aniso 1.0 1.0 1000.0
fix 1 all npt temp 3000 3000 100.0 aniso 1.0 1.0 1000.0
thermo 100
thermo_style custom step pe ke etotal temp press vol

# Output dump
dump 1 all custom 100 dump_${temp}K.lammpstrj id element x y z vx vy vz
dump 1 all custom 100 dump_3000K.lammpstrj id element x y z vx vy vz
dump_modify 1 element Ce O

# Run the simulation for 10000 steps
run 10000
Ewald initialization ...
  using 12-bit tables for long-range coulomb (src/kspace.cpp:342)
  G vector (1/distance) = 0.30837585
  estimated absolute RMS force accuracy = 0.035763265
  estimated relative force accuracy = 0.00010770001
  KSpace vectors: actual max1d max3d = 19455 21 39753
                  kxmax kymax kzmax  = 21 21 21
Generated 0 of 1 mixed pair_coeff terms from geometric mixing rule
Per MPI rank memory allocation (min/avg/max) = 45.01 | 45.01 | 45.01 Mbytes
   Step         PotEng         KinEng         TotEng          Temp          Press          Volume    
     50000  -16408342       185421.29     -16222921       3000           3129.6681      291783.26    
     50100  -16402409       182466.6      -16219942       2952.195       2619.5866      292486.66    
     50200  -16399006       182894.3      -16216112       2959.1148     -3551.72        293879.36    
     50300  -16395291       183377.22     -16211914       2966.9283     -4272.8214      294131.94    
     50400  -16394656       185967.63     -16208688       3008.8394      1473.2354      293338.2     
     50500  -16392752       184974.16     -16207778       2992.7658      3283.7138      293068.86    
     50600  -16394971       185553.71     -16209418       3002.1425     -1134.8082      293558.2     
     50700  -16395931       185065.98     -16210865       2994.2514     -3453.5104      293775.59    
     50800  -16395158       183888.04     -16211270       2975.1931      39.073153      293340.86    
     50900  -16394845       184375.42     -16210469       2983.0784      2591.9583      293045.04    
     51000  -16395632       186425.21     -16209207       3016.2428      371.18114      293376.42    
     51100  -16394887       186934.04     -16207953       3024.4753     -1763.5583      293881.91    
     51200  -16392189       185322.32     -16206866       2998.3988     -1336.6228      294072.27    
     51300  -16391570       185818.44     -16205752       3006.4256     -726.72172      293978.89    
     51400  -16393872       186934.51     -16206937       3024.483       539.95109      293672.42    
     51500  -16396326       186865.81     -16209460       3023.3715      978.08657      293363.95    
     51600  -16395010       184225.42     -16210784       2980.6516      496.29111      293306.69    
     51700  -16396110       185311.18     -16210799       2998.2185      368.64678      293440.59    
     51800  -16395855       186693.99     -16209161       3020.5915     -1075.2234      293685.61    
     51900  -16393524       186467.35     -16207057       3016.9247     -23.513209      293753.59    
     52000  -16394050       186769        -16207281       3021.8051     -483.87715      293703.88    
     52100  -16394915       186457.68     -16208457       3016.7681      90.162823      293607.82    
     52200  -16394990       185513.11     -16209477       3001.4855     -273.92577      293534.38    
     52300  -16397067       187012.04     -16210055       3025.7373     -514.308        293540.82    
     52400  -16395665       184913.67     -16210751       2991.787      -1027.7832      293545.17    
     52500  -16396227       183816.63     -16212411       2974.0376     -395.84811      293380.33    
     52600  -16397488       184782.99     -16212705       2989.6728     -767.35577      293286.07    
     52700  -16396609       186181.86     -16210427       3012.3056      786.69441      293279.69    
     52800  -16394731       185704.87     -16209026       3004.5882      86.959763      293527.94    
     52900  -16394531       185473.98     -16209057       3000.8525     -278.10128      293764.28    
     53000  -16394388       185013.61     -16209374       2993.404      -297.88001      293787.23    
     53100  -16395489       185359.18     -16210130       2998.9952      968.23676      293432.48    
     53200  -16395787       184081.15     -16211706       2978.3173      3102.8649      293108.86    
     53300  -16396799       184233.51     -16212565       2980.7824      690.82353      293326.41    
     53400  -16396048       185450.26     -16210597       3000.4687     -1764.116       293682.83    
     53500  -16395731       186878.16     -16208852       3023.5713     -1013.2036      293626.89    
     53600  -16395755       186938.59     -16208816       3024.5489      488.62859      293409.71    
     53700  -16394369       184685.59     -16209683       2988.0969      1725.9685      293425.21    
     53800  -16395258       183669.12     -16211589       2971.6511     -980.89621      293616.76    
     53900  -16397958       184874.04     -16213084       2991.1459     -1995.032       293534.22    
     54000  -16396917       185976.11     -16210941       3008.9767     -69.19543       293155.12    
     54100  -16395067       186014.41     -16209052       3009.5964      3134.9464      293082.43    
     54200  -16395520       186491.11     -16209029       3017.3091     -665.06872      293656.63    
     54300  -16395196       186088.63     -16209108       3010.7972     -2201.1929      294137.9     
     54400  -16395443       186824.23     -16208619       3022.6987     -1740.8358      293883.04    
     54500  -16393205       185561.59     -16207643       3002.27        2156.3417      293303.16    
     54600  -16393101       184472.49     -16208629       2984.6491      1549.172       293400.38    
     54700  -16395218       184437.67     -16210781       2984.0857     -2463.3864      293766.82    
     54800  -16396458       185383.45     -16211074       2999.3878     -1682.1633      293576.73    
     54900  -16395655       185539.68     -16210115       3001.9155      2502.5752      292978.41    
     55000  -16395407       185709.46     -16209698       3004.6624      2412.3595      293071.9     
     55100  -16394112       183594.29     -16210518       2970.4403     -361.07311      293727.44    
     55200  -16395144       182669.05     -16212475       2955.4705     -3381.2835      294003.18    
     55300  -16396662       185250.83     -16211412       2997.2421     -653.8041       293334.89    
     55400  -16396001       186615.54     -16209385       3019.3222      4773.4175      292737.27    
     55500  -16396048       186489.7      -16209559       3017.2862      1670.6811      293244.75    
     55600  -16394675       184199.78     -16210475       2980.2367     -4428.8586      294116.47    
     55700  -16397135       185150.76     -16211984       2995.6229     -3061.7881      293938.11    
     55800  -16397282       185161.28     -16212121       2995.7932      89.590095      293105.31    
     55900  -16395205       184802.64     -16210402       2989.9906      5579.0395      292637.58    
     56000  -16395374       186542.72     -16208831       3018.144       1342.1724      293334.25    
     56100  -16393901       185191.32     -16208710       2996.2792     -3242.4166      294172.08    
     56200  -16394350       185294.91     -16209055       2997.9553     -2763.0383      294017.28    
     56300  -16395220       185491.69     -16209728       3001.1391      182.67276      293258.99    
     56400  -16396618       185338.39     -16211280       2998.6587      2396.6738      293017.54    
     56500  -16396311       183883.85     -16212427       2975.1252      552.59652      293402.08    
     56600  -16396174       184975.89     -16211199       2992.7937     -1423.5064      293790.62    
     56700  -16394832       186065.8      -16208766       3010.4278     -853.59742      293698.52    
     56800  -16394987       186482.73     -16208504       3017.1735      913.5769       293367.18    
     56900  -16393720       184116.61     -16209603       2978.8911      425.78946      293367.1     
     57000  -16396350       185089.14     -16211261       2994.626      -1918.2713      293565.77    
     57100  -16394420       182139.3      -16212281       2946.8995      828.97713      293495.7     
     57200  -16394745       185688.35     -16209057       3004.3209      362.9283       293361.39    
     57300  -16393738       185516.18     -16208221       3001.5354      940.57702      293450.06    
     57400  -16395193       186240.21     -16208953       3013.2497     -2858.4878      293763.55    
     57500  -16394734       184239.26     -16210495       2980.8754     -1085.9799      293531.64    
     57600  -16396815       185311.39     -16211504       2998.2219      2330.7639      292999.45    
     57700  -16396812       184045.32     -16212767       2977.7377      2039.8753      292884.76    
     57800  -16397620       183858.88     -16213761       2974.7212     -1119.3584      293317.8     
     57900  -16394527       182659.25     -16211867       2955.312      -946.44709      293610.92    
     58000  -16395642       185991.16     -16209651       3009.2202      331.86853      293442.74    
     58100  -16394794       185708.03     -16209086       3004.6393      1574.5423      293250.11    
     58200  -16394926       185627.99     -16209298       3003.3442      1171.8843      293474.34    
     58300  -16396529       186525.97     -16210003       3017.8731     -2326.5393      293822.35    
     58400  -16394930       183931.89     -16210998       2975.9025     -1993.4935      293724.34    
     58500  -16396480       185530.21     -16210949       3001.7622      1705.7522      293267.65    
     58600  -16395607       185488.47     -16210119       3001.087       1534.8566      293054.67    
     58700  -16394854       185875.86     -16208978       3007.3546      1144.0303      293455.58    
     58800  -16392851       184580.24     -16208271       2986.3923     -3171.9589      294038.41    
     58900  -16394126       186865.69     -16207260       3023.3695     -902.99244      293969.57    
     59000  -16393472       186103.58     -16207368       3011.0391      1130.865       293621.5     
     59100  -16395082       185094.34     -16209988       2994.7101      566.59734      293463.66    
     59200  -16396022       184763.55     -16211259       2989.3582     -298.15476      293290.52    
     59300  -16395637       184593.82     -16211043       2986.6121      1293.4945      293169.69    
     59400  -16395290       185817.96     -16209472       3006.4178      337.90598      293389       
     59500  -16395024       187580.98     -16207443       3034.9425     -616.70249      293724.21    
     59600  -16392507       184864.37     -16207642       2990.9894     -331.97915      293796.92    
     59700  -16393788       184979.63     -16208808       2992.8542      605.42783      293641.6     
     59800  -16395389       186153.04     -16209236       3011.8393     -416.8693       293502.89    
     59900  -16393318       182818.35     -16210499       2957.886       1998.1292      293308.03    
     60000  -16397191       186185.6      -16211005       3012.366       329.39937      293408.35    
Loop time of 4444.71 on 8 procs for 10000 steps with 20736 atoms

Performance: 0.194 ns/day, 123.464 hours/ns, 2.250 timesteps/s, 46.653 katom-step/s
80.2% CPU use with 8 MPI tasks x 1 OpenMP threads

MPI task timing breakdown:
Section |  min time  |  avg time  |  max time  |%varavg| %total
---------------------------------------------------------------
Pair    | 119.49     | 124.04     | 126.83     |  22.5 |  2.79
Kspace  | 3692.1     | 3772.5     | 4275.4     | 309.6 | 84.88
Neigh   | 7.5433     | 7.8187     | 8.0069     |   5.7 |  0.18
Comm    | 24.274     | 529.43     | 606.95     | 829.9 | 11.91
Output  | 0.75893    | 0.76029    | 0.76203    |   0.1 |  0.02
Modify  | 6.4325     | 7.072      | 7.2635     |   9.4 |  0.16
Other   |            | 3.104      |            |       |  0.07

Nlocal:           2592 ave        2605 max        2581 min
Histogram: 2 1 0 0 1 2 0 0 0 2
Nghost:          10177 ave       10196 max       10149 min
Histogram: 1 0 0 0 1 1 2 2 0 1
Neighs:         658341 ave      678689 max      640504 min
Histogram: 1 1 2 0 0 0 3 0 0 1

Total # of neighbors = 5266728
Ave neighs/atom = 253.98958
Neighbor list builds = 517
Dangerous builds = 0

# Unfix the previous fix to prepare for the next loop iteration
unfix 1

# Dump settings will be cleared with the unfix command, so we remove it
undump 1

# Next iteration
next temp
jump SELF loop_temperature

# Set velocities for initial temperature of ${temp} K
velocity all create ${temp} 87287 loop geom
velocity all create 3200 87287 loop geom

# Apply NPT ensemble with P = 1 atm, T = ${temp} K, timestep = 1.0 fs, temperature damping = 100 fs (100x timestep), pressure damping = 1000 fs (1000x timestep)
fix 1 all npt temp ${temp} ${temp} 100.0 aniso 1.0 1.0 1000.0
fix 1 all npt temp 3200 ${temp} 100.0 aniso 1.0 1.0 1000.0
fix 1 all npt temp 3200 3200 100.0 aniso 1.0 1.0 1000.0
thermo 100
thermo_style custom step pe ke etotal temp press vol

# Output dump
dump 1 all custom 100 dump_${temp}K.lammpstrj id element x y z vx vy vz
dump 1 all custom 100 dump_3200K.lammpstrj id element x y z vx vy vz
dump_modify 1 element Ce O

# Run the simulation for 10000 steps
run 10000
Ewald initialization ...
  using 12-bit tables for long-range coulomb (src/kspace.cpp:342)
  G vector (1/distance) = 0.30833082
  estimated absolute RMS force accuracy = 0.035934281
  estimated relative force accuracy = 0.00010821502
  KSpace vectors: actual max1d max3d = 19477 21 39753
                  kxmax kymax kzmax  = 21 21 21
Generated 0 of 1 mixed pair_coeff terms from geometric mixing rule
Per MPI rank memory allocation (min/avg/max) = 45.01 | 45.01 | 45.01 Mbytes
   Step         PotEng         KinEng         TotEng          Temp          Press          Volume    
     60000  -16397191       197782.71     -16199408       3200           2135.5969      293408.35    
     60100  -16387909       192163.01     -16195746       3109.0768      1925.496       293933.79    
     60200  -16383966       193123.94     -16190842       3124.624      -2196.4835      294974.02    
     60300  -16381025       195332.6      -16185692       3160.3588     -3207.5457      295400.44    
     60400  -16379465       197568.22     -16181897       3196.5296      2012.9614      294989.93    
     60500  -16379462       199925.69     -16179537       3234.672       817.49277      294942.05    
     60600  -16379019       199002.38     -16180017       3219.7336     -1425.0895      295333.48    
     60700  -16378735       196822.42     -16181913       3184.4631     -2961.2097      295564.28    
     60800  -16380510       197806.35     -16182704       3200.3825     -1694.3156      295264.07    
     60900  -16380320       197433.54     -16182886       3194.3506      2851.5065      294752.06    
     61000  -16378892       196614.14     -16182278       3181.0934      1202.0304      294792.45    
     61100  -16379290       197798.43     -16181491       3200.2544     -901.76869      295181.58    
     61200  -16376720       195971.38     -16180748       3170.6939      36.326807      295437.87    
     61300  -16378989       199865.31     -16179124       3233.6953     -409.51879      295472.62    
     61400  -16378258       198704.15     -16179554       3214.9084     -938.01928      295370.14    
     61500  -16379853       197297.67     -16182556       3192.1524      391.35146      295222.06    
     61600  -16380241       196699.89     -16183541       3182.4807      613.62047      295165.21    
     61700  -16380848       197953.8      -16182894       3202.7682     -1134.8917      295167.71    
     61800  -16378586       197442.64     -16181144       3194.4979      803.93571      295167.73    
     61900  -16377604       199227.57     -16178377       3223.3769      92.658564      295413.04    
     62000  -16378191       199646.09     -16178545       3230.1483     -1674.8559      295633.4     
     62100  -16377325       197520.22     -16179805       3195.7531     -1543.6999      295496.2     
     62200  -16378750       197136.57     -16181613       3189.5459      1489.7311      294978.48    
     62300  -16380041       197066.52     -16182975       3188.4126      2900.2817      294634.76    
     62400  -16381828       198542.29     -16183285       3212.2896     -346.32907      294866.83    
     62500  -16380836       197726.61     -16183109       3199.0923     -457.98848      295179.76    
     62600  -16378235       198192.44     -16180042       3206.6292     -754.48545      295451.88    
     62700  -16378776       200278.39     -16178498       3240.3786     -1383.692       295578.33    
     62800  -16377990       198063.33     -16179926       3204.5403     -700.35023      295337.54    
     62900  -16380072       198146.6      -16181925       3205.8876      1284.5642      294942.62    
     63000  -16379848       197009.15     -16182839       3187.4843      902.76126      294940.82    
     63100  -16379468       196913.88     -16182554       3185.9429      507.15731      295141.08    
     63200  -16380654       200217.29     -16180437       3239.39       -817.66053      295323.97    
     63300  -16377835       199803.11     -16178032       3232.6888     -779.48077      295390.66    
     63400  -16377539       198786.07     -16178753       3216.2338     -950.3603       295429.23    
     63500  -16377902       197399.8      -16180503       3193.8048      317.3968       295206.39    
     63600  -16379390       197799.98     -16181590       3200.2794      630.77719      295102.4     
     63700  -16380224       198123.33     -16182100       3205.511      -37.557505      295203.24    
     63800  -16379380       196652.23     -16182727       3181.7096      688.4753       295195.99    
     63900  -16379045       196640.45     -16182404       3181.5189      982.93918      295073.15    
     64000  -16377578       196961.27     -16180617       3186.7096      1112.9116      295162.12    
     64100  -16378125       198410.73     -16179714       3210.161      -455.17806      295357.2     
     64200  -16379867       199358.77     -16180508       3225.4997     -109.97953      295350.06    
     64300  -16380395       197403.56     -16182992       3193.8656     -1374.5691      295249.26    
     64400  -16381567       197907.59     -16183660       3202.0206      643.88552      295001.73    
     64500  -16381232       198379.27     -16182852       3209.652       487.35981      294864.35    
     64600  -16379506       197420.15     -16182086       3194.134       2433.1672      294876.21    
     64700  -16380982       199064.7      -16181917       3220.7419      42.657518      295181.52    
     64800  -16378370       196903.76     -16181466       3185.7791     -1127.0095      295520.45    
     64900  -16378238       198225.31     -16180012       3207.1609     -1514.1872      295564.81    
     65000  -16378127       199203.98     -16178923       3222.9953     -474.884        295328.28    
     65100  -16379589       198936.51     -16180652       3218.6678      595.98317      295054.95    
     65200  -16379453       196208.84     -16183244       3174.5359      1596.0592      294969.28    
     65300  -16379703       196733.44     -16182970       3183.0235     -266.11893      295136.03    
     65400  -16379129       198136.94     -16180992       3205.7312     -656.27182      295321.63    
     65500  -16377959       198227.63     -16179731       3207.1986      814.19742      295372.77    
     65600  -16378781       198532.87     -16180248       3212.1372      211.91905      295267.71    
     65700  -16381307       199463.48     -16181843       3227.1938     -880.04511      295103.12    
     65800  -16380707       196822.27     -16183885       3184.4607      1041.9126      294932.02    
     65900  -16380412       196802.59     -16183610       3184.1422      861.48551      295098.06    
     66000  -16380836       198584.84     -16182252       3212.978      -712.62552      295345.22    
     66100  -16378634       198170.17     -16180464       3206.2689     -1637.1002      295463.52    
     66200  -16378193       198790.65     -16179402       3216.3078     -392.02629      295435.75    
     66300  -16378325       198381.58     -16179944       3209.6894     -49.157702      295313.42    
     66400  -16379343       196293.97     -16183049       3175.9132      332.3389       295126.51    
     66500  -16380475       196884.9      -16183591       3185.4741      470.16224      294967.75    
     66600  -16381382       198770.19     -16182612       3215.9768      235.03157      294863.33    
     66700  -16379187       197910.23     -16181277       3202.0632      1600.0001      294927.79    
     66800  -16376694       197733.62     -16178961       3199.2058      860.23304      295287.06    
     66900  -16375255       198292.54     -16176963       3208.2487     -393.79314      295759.26    
     67000  -16375450       197521.68     -16177928       3195.7767     -1908.5302      296030.46    
     67100  -16377419       198196.09     -16179223       3206.6882     -2521.3191      295662.84    
     67200  -16378774       198416.65     -16180358       3210.2568      1381.1565      294886.52    
     67300  -16379094       197045.8      -16182048       3188.0773      3019.1544      294628.78    
     67400  -16380686       197617.06     -16183068       3197.3199     -2041.7359      295125.09    
     67500  -16379778       197140.83     -16182638       3189.6147     -2901.9025      295421.08    
     67600  -16379656       198891.49     -16180765       3217.9393      115.89863      295182.8     
     67700  -16376777       199179.07     -16177598       3222.5923      2169.4654      295078.18    
     67800  -16376243       199023.2      -16177219       3220.0704      1075.6551      295309.16    
     67900  -16376900       198178.95     -16178721       3206.411      -2565.461       295565.63    
     68000  -16379450       198630.77     -16180819       3213.7211     -2258.6233      295398.91    
     68100  -16381219       198830.23     -16182389       3216.9483      807.38115      294897.22    
     68200  -16380770       197214.84     -16183555       3190.8122      3495.6002      294580.32    
     68300  -16381259       197511.32     -16183748       3195.6091      1909.412       294868.49    
     68400  -16379417       197092.37     -16182324       3188.8308     -2311.6621      295421.18    
     68500  -16379341       199772.3      -16179569       3232.1903     -137.95636      295485.07    
     68600  -16378363       198848.65     -16179514       3217.2462     -24.695047      295276.85    
     68700  -16379991       198199.91     -16181791       3206.7501     -103.81749      295073.4     
     68800  -16379832       196671.24     -16183161       3182.0172      1444.8137      294965.04    
     68900  -16382220       198893.79     -16183326       3217.9766     -1049.4412      295035.54    
     69000  -16379634       196929.02     -16182705       3186.1878     -341.0362       295040.37    
     69100  -16378970       199701.88     -16179268       3231.0509      1950.4824      295144.42    
     69200  -16377750       198553.15     -16179197       3212.4653     -1290.5073      295567.17    
     69300  -16377701       197112.69     -16180588       3189.1595     -2301.8368      295821.97    
     69400  -16379721       198011.34     -16181710       3203.6991     -159.04209      295424.13    
     69500  -16381507       199194.2      -16182313       3222.8371      1710.9046      294896.43    
     69600  -16381218       195768.19     -16185450       3167.4064      1254.8132      294765.64    
     69700  -16382902       197114.72     -16185787       3189.1924     -611.96635      294937.62    
     69800  -16380876       197085.31     -16183790       3188.7165     -877.61917      294974.59    
     69900  -16378354       195889.39     -16182465       3169.3674      851.39799      294983.75    
     70000  -16377627       195483.5      -16182143       3162.8002      1301.4426      295169.2     
Loop time of 3589.08 on 8 procs for 10000 steps with 20736 atoms

Performance: 0.241 ns/day, 99.697 hours/ns, 2.786 timesteps/s, 57.775 katom-step/s
98.1% CPU use with 8 MPI tasks x 1 OpenMP threads

MPI task timing breakdown:
Section |  min time  |  avg time  |  max time  |%varavg| %total
---------------------------------------------------------------
Pair    | 115.93     | 120.33     | 123.92     |  24.9 |  3.35
Kspace  | 2868.2     | 2947.5     | 3443.2     | 345.2 | 82.12
Neigh   | 7.7236     | 7.9454     | 8.1106     |   4.8 |  0.22
Comm    | 6.045      | 504.55     | 580.09     | 838.9 | 14.06
Output  | 0.63748    | 0.63767    | 0.63841    |   0.0 |  0.02
Modify  | 5.1249     | 5.7386     | 5.8796     |   9.8 |  0.16
Other   |            | 2.425      |            |       |  0.07

Nlocal:           2592 ave        2621 max        2574 min
Histogram: 1 2 1 1 1 1 0 0 0 1
Nghost:        10181.1 ave       10228 max       10154 min
Histogram: 2 0 2 0 3 0 0 0 0 1
Neighs:         653978 ave      671003 max      639274 min
Histogram: 2 0 1 0 0 2 1 1 0 1

Total # of neighbors = 5231822
Ave neighs/atom = 252.30623
Neighbor list builds = 538
Dangerous builds = 0

# Unfix the previous fix to prepare for the next loop iteration
unfix 1

# Dump settings will be cleared with the unfix command, so we remove it
undump 1

# Next iteration
next temp
jump SELF loop_temperature

# Set velocities for initial temperature of ${temp} K
velocity all create ${temp} 87287 loop geom
velocity all create 3400 87287 loop geom

# Apply NPT ensemble with P = 1 atm, T = ${temp} K, timestep = 1.0 fs, temperature damping = 100 fs (100x timestep), pressure damping = 1000 fs (1000x timestep)
fix 1 all npt temp ${temp} ${temp} 100.0 aniso 1.0 1.0 1000.0
fix 1 all npt temp 3400 ${temp} 100.0 aniso 1.0 1.0 1000.0
fix 1 all npt temp 3400 3400 100.0 aniso 1.0 1.0 1000.0
thermo 100
thermo_style custom step pe ke etotal temp press vol

# Output dump
dump 1 all custom 100 dump_${temp}K.lammpstrj id element x y z vx vy vz
dump 1 all custom 100 dump_3400K.lammpstrj id element x y z vx vy vz
dump_modify 1 element Ce O

# Run the simulation for 10000 steps
run 10000
Ewald initialization ...
  using 12-bit tables for long-range coulomb (src/kspace.cpp:342)
  G vector (1/distance) = 0.3082823
  estimated absolute RMS force accuracy = 0.036128031
  estimated relative force accuracy = 0.00010879849
  KSpace vectors: actual max1d max3d = 19461 21 39753
                  kxmax kymax kzmax  = 21 21 21
Generated 0 of 1 mixed pair_coeff terms from geometric mixing rule
Per MPI rank memory allocation (min/avg/max) = 45.01 | 45.01 | 45.01 Mbytes
   Step         PotEng         KinEng         TotEng          Temp          Press          Volume    
     70000  -16377627       210144.13     -16167483       3400           3571.3336      295169.2     
     70100  -16370129       205870.74     -16164259       3330.8593      2420.7088      295798.93    
     70200  -16367447       207126.33     -16160321       3351.1739     -3000.3385      296996.37    
     70300  -16365240       209357.37     -16155882       3387.2707     -4107.7222      297406.98    
     70400  -16363015       210332.14     -16152683       3403.0419      529.48664      296967.04    
     70500  -16361797       210291.07     -16151505       3402.3775      2727.7692      296622.8     
     70600  -16364587       211563.67     -16153024       3422.9674     -661.03615      296740.88    
     70700  -16364310       209315.91     -16154994       3386.6        -1378.7004      296877.1     
     70800  -16365047       210123.28     -16154924       3399.6627     -575.9151       296838.71    
     70900  -16366127       213098.61     -16153029       3447.8017     -88.435563      296727.1     
     71000  -16364748       212310.73     -16152437       3435.0543      1446.6321      296805.69    
     71100  -16362915       209829.11     -16153086       3394.9033     -1217.9277      297155.11    
     71200  -16362565       207908.69     -16154656       3363.832      -302.867        297194.39    
     71300  -16362907       208089.53     -16154817       3366.758       255.64369      296853.39    
     71400  -16364398       211288.64     -16153109       3418.5175      2394.7385      296438.26    
     71500  -16361424       209544.76     -16151879       3390.3025      1895.0151      296478.01    
     71600  -16363183       210823.07     -16152360       3410.9849     -566.70329      297042.97    
     71700  -16361969       207160.72     -16154808       3351.7303     -4820.5281      297501.52    
     71800  -16364135       209317.28     -16154818       3386.6221     -1157.374       296885.03    
     71900  -16365992       212892.59     -16153099       3444.4683      3136.5751      295897.48    
     72000  -16363994       212326.55     -16151667       3435.3102      3619.751       296059.02    
     72100  -16361845       210030.27     -16151815       3398.1578     -2154.672       297411.74    
     72200  -16360740       207276.63     -16153463       3353.6057     -7035.4102      298226.39    
     72300  -16362796       209365.51     -16153430       3387.4024     -2465.4893      297368.23    
     72400  -16362927       211645.86     -16151282       3424.2971      5976.9157      296067.76    
     72500  -16363417       211617.68     -16151800       3423.8412      4530.6376      296183.86    
     72600  -16363362       208155.78     -16155206       3367.8298     -2118.8761      297055.44    
     72700  -16361889       207214.29     -16154675       3352.597      -3350.2643      297312.22    
     72800  -16363077       210776.45     -16152300       3410.2305      444.47864      296924.45    
     72900  -16362993       211503.73     -16151489       3421.9975      2208.3811      296708.46    
     73000  -16363469       211369.17     -16152100       3419.8204     -325.46689      296947.31    
     73100  -16362706       208252.03     -16154454       3369.3871     -2060.0898      297203.8     
     73200  -16364936       208717.09     -16156219       3376.9115     -2098.8243      296896.99    
     73300  -16366214       210797.03     -16155417       3410.5636      525.01274      296313.01    
     73400  -16364036       211736.69     -16152299       3425.7667      3204.3586      296252.19    
     73500  -16363192       211092.94     -16152099       3415.3511     -330.73284      297080.3     
     73600  -16361735       209015.21     -16152720       3381.7348     -4853.0805      297662.06    
     73700  -16364078       210105.86     -16153972       3399.3809     -1386.381       297111.14    
     73800  -16366061       210249.06     -16155812       3401.6977      1625.4494      296256.68    
     73900  -16367060       209889.07     -16157171       3395.8733      2174.9393      296079.84    
     74000  -16366310       209899.03     -16156410       3396.0345     -92.85783       296523.95    
     74100  -16363203       210285.55     -16152918       3402.2881     -1834.1763      296974.92    
     74200  -16362261       210298.29     -16151962       3402.4943     -275.34632      297210.26    
     74300  -16360947       209739.46     -16151207       3393.4527     -777.90117      297270.62    
     74400  -16361352       210239.68     -16151112       3401.546      -441.88865      296989.7     
     74500  -16364409       210771.59     -16153638       3410.152       1179.212       296641.34    
     74600  -16365890       210306.27     -16155584       3402.6234      2361.906       296631.13    
     74700  -16365029       209854.42     -16155174       3395.3127     -2385.6067      296926.88    
     74800  -16363761       210652.35     -16153109       3408.2227      465.80398      296888.59    
     74900  -16361963       210334.77     -16151629       3403.0845     -981.41416      296945.62    
     75000  -16364314       212196.07     -16152118       3433.1991      2269.4122      296961.96    
     75100  -16363792       211019.19     -16152773       3414.158      -1454.4754      297208       
     75200  -16364145       210661.68     -16153483       3408.3737     -1302.8278      297139.45    
     75300  -16364744       209505.4      -16155239       3389.6657      1360.2589      296778.95    
     75400  -16366155       210020.82     -16156134       3398.0049      51.031611      296536.91    
     75500  -16362967       207475.59     -16155491       3356.8247      2916.0358      296455.06    
     75600  -16362795       210287.68     -16152508       3402.3226     -1517.6984      296923.64    
     75700  -16361215       209574.22     -16151641       3390.7793     -308.20411      297370.32    
     75800  -16361042       209802.45     -16151240       3394.4718     -2836.4715      297442.51    
     75900  -16361498       210462.91     -16151035       3405.1577      578.11085      296857.51    
     76000  -16364847       211532.79     -16153314       3422.4677      3224.042       296301.77    
     76100  -16365570       209831.82     -16155739       3394.947       1532.5263      296403.43    
     76200  -16365524       209868.7      -16155655       3395.5437     -1008.6868      296873.1     
     76300  -16362315       209283.89     -16153031       3386.0819     -1113.7369      297232.4     
     76400  -16360423       208831.23     -16151592       3378.7581     -39.926546      297164.82    
     76500  -16362291       211403.56     -16150887       3420.3768      484.82557      296840.91    
     76600  -16362239       210310.53     -16151929       3402.6923      1264.2409      296696.41    
     76700  -16363523       208901.79     -16154621       3379.8997     -661.17472      296972.46    
     76800  -16362754       208268.69     -16154485       3369.6566     -1363.6682      297152.62    
     76900  -16362970       209905.09     -16153065       3396.1325     -439.13572      296980.86    
     77000  -16362033       210030.43     -16152003       3398.1605      683.55643      296713.39    
     77100  -16362743       210945.44     -16151798       3412.9647      76.020297      296835.01    
     77200  -16362841       210156.22     -16152684       3400.1957     -960.85565      297188.34    
     77300  -16363675       208339.89     -16155335       3370.8085     -2972.7021      297342.2     
     77400  -16363273       207957.26     -16155315       3364.6179     -1247.4709      296970.6     
     77500  -16363332       211053.94     -16152278       3414.7202      2652.2715      296433.6     
     77600  -16363228       211175.18     -16152052       3416.6818      1888.9884      296616.72    
     77700  -16361008       208437.63     -16152571       3372.3899     -1380.8908      297245.2     
     77800  -16362843       210094.81     -16152749       3399.2021     -4017.0151      297496.61    
     77900  -16363701       210693.65     -16153007       3408.8909     -763.07867      297024.45    
     78000  -16363259       209610.15     -16153649       3391.3606      1355.4156      296562.14    
     78100  -16363870       209363.56     -16154507       3387.371       2462.9858      296505.29    
     78200  -16364073       209691.17     -16154381       3392.6715     -604.11722      296952.17    
     78300  -16362264       210044.6      -16152220       3398.3897     -1391.8897      297303.21    
     78400  -16361595       211557.67     -16150037       3422.8702     -628.15678      297384.61    
     78500  -16360843       210750.77     -16150092       3409.8151     -1258.8613      297278.73    
     78600  -16362399       211080.71     -16151318       3415.1533      332.27812      297004.86    
     78700  -16362761       209634.34     -16153127       3391.7519      1146.5232      296816.87    
     78800  -16363232       209823.79     -16153408       3394.8171      64.083835      296780.43    
     78900  -16361898       209097.72     -16152800       3383.0698     -97.126849      296917.69    
     79000  -16362205       210576.68     -16151629       3406.9984     -667.5793       297102.61    
     79100  -16359975       210170.85     -16149804       3400.4323     -822.17243      297262.04    
     79200  -16359254       210930.78     -16148323       3412.7276     -926.99722      297209.35    
     79300  -16359416       209390.52     -16150025       3387.8071      1206.4944      296979.03    
     79400  -16361741       208804.89     -16152936       3378.332       38.780868      296921.07    
     79500  -16362028       208127.64     -16153900       3367.3745      1087.4996      296795.51    
     79600  -16364307       210903.7      -16153403       3412.2894     -1079.5557      296779.15    
     79700  -16362313       209999.91     -16152313       3397.6667      2581.5706      296769.08    
     79800  -16361575       211662.53     -16149912       3424.5668     -426.73372      297153.96    
     79900  -16362062       213060.71     -16149001       3447.1885     -3064.6972      297620.35    
     80000  -16361127       210122.49     -16151005       3399.6499     -2708.2806      297508.9     
Loop time of 33011.9 on 8 procs for 10000 steps with 20736 atoms

Performance: 0.026 ns/day, 916.998 hours/ns, 0.303 timesteps/s, 6.281 katom-step/s
10.8% CPU use with 8 MPI tasks x 1 OpenMP threads

MPI task timing breakdown:
Section |  min time  |  avg time  |  max time  |%varavg| %total
---------------------------------------------------------------
Pair    | 1119.2     | 1123.8     | 1129       |   9.6 |  3.40
Kspace  | 22300      | 24332      | 27847      |1057.9 | 73.71
Neigh   | 8.9269     | 9.163      | 9.4091     |   4.9 |  0.03
Comm    | 1073.9     | 4709.7     | 6627.6     |2461.0 | 14.27
Output  | 0.98607    | 1.0025     | 1.0125     |   0.9 |  0.00
Modify  | 2001.5     | 2714.3     | 2949.7     | 781.7 |  8.22
Other   |            | 122.3      |            |       |  0.37

Nlocal:           2592 ave        2620 max        2565 min
Histogram: 2 1 0 0 0 1 2 0 0 2
Nghost:        10170.8 ave       10197 max       10144 min
Histogram: 1 1 1 0 2 0 0 1 0 2
Neighs:         648307 ave      670023 max      626255 min
Histogram: 2 0 0 1 0 1 2 1 0 1

Total # of neighbors = 5186456
Ave neighs/atom = 250.11844
Neighbor list builds = 560
Dangerous builds = 0

# Unfix the previous fix to prepare for the next loop iteration
unfix 1

# Dump settings will be cleared with the unfix command, so we remove it
undump 1

# Next iteration
next temp
jump SELF loop_temperature

# Set velocities for initial temperature of ${temp} K
velocity all create ${temp} 87287 loop geom
velocity all create 3600 87287 loop geom

# Apply NPT ensemble with P = 1 atm, T = ${temp} K, timestep = 1.0 fs, temperature damping = 100 fs (100x timestep), pressure damping = 1000 fs (1000x timestep)
fix 1 all npt temp ${temp} ${temp} 100.0 aniso 1.0 1.0 1000.0
fix 1 all npt temp 3600 ${temp} 100.0 aniso 1.0 1.0 1000.0
fix 1 all npt temp 3600 3600 100.0 aniso 1.0 1.0 1000.0
thermo 100
thermo_style custom step pe ke etotal temp press vol

# Output dump
dump 1 all custom 100 dump_${temp}K.lammpstrj id element x y z vx vy vz
dump 1 all custom 100 dump_3600K.lammpstrj id element x y z vx vy vz
dump_modify 1 element Ce O

# Run the simulation for 10000 steps
run 10000
Ewald initialization ...
  using 12-bit tables for long-range coulomb (src/kspace.cpp:342)
  G vector (1/distance) = 0.30821827
  estimated absolute RMS force accuracy = 0.036404039
  estimated relative force accuracy = 0.00010962968
  KSpace vectors: actual max1d max3d = 19467 21 39753
                  kxmax kymax kzmax  = 21 21 21
Generated 0 of 1 mixed pair_coeff terms from geometric mixing rule
Per MPI rank memory allocation (min/avg/max) = 45.01 | 45.01 | 45.01 Mbytes
   Step         PotEng         KinEng         TotEng          Temp          Press          Volume    
     80000  -16361127       222505.55     -16138622       3600          -806.28824      297508.9     
     80100  -16354280       219221.13     -16135059       3546.8602      2183.7586      297684.25    
     80200  -16351179       220187.13     -16130992       3562.4894     -61.79511       298312.89    
     80300  -16347959       221272.36     -16126687       3580.0478     -1804.5798      298831.84    
     80400  -16346068       222846.14     -16123222       3605.5106     -1635.5449      298947.37    
     80500  -16346446       225553.74     -16120892       3649.3179     -462.33047      298890.09    
     80600  -16345013       223828.25     -16121185       3621.4006     -117.3862       298818.99    
     80700  -16345532       221666.69     -16123865       3586.4278      132.72439      298621.05    
     80800  -16348027       222861.41     -16125165       3605.7576      1524.6078      298384.48    
     80900  -16346727       221022.29     -16125705       3576.0018      1553.9189      298365.15    
     81000  -16346670       222785.75     -16123884       3604.5335      380.81136      298512.59    
     81100  -16343822       222744.26     -16121078       3603.8623      8.9096617      298836.64    
     81200  -16345040       224154.48     -16120885       3626.6788     -950.34622      299286       
     81300  -16344422       222289.14     -16122133       3596.4987     -2383.8676      299291.29    
     81400  -16346174       223312.56     -16122862       3613.057       1267.3799      298718.72    
     81500  -16347647       224190.33     -16123457       3627.2588      1683.0852      298120.26    
     81600  -16346532       222166.31     -16124365       3594.5113      3508.4748      298097.38    
     81700  -16346023       221814.18     -16124209       3588.8141     -708.17861      298976.67    
     81800  -16344598       221676.59     -16122922       3586.588      -5951.6365      299718.94    
     81900  -16344028       223314.8      -16120713       3613.0933     -678.46024      299226.38    
     82000  -16343461       222740.9      -16120720       3603.8079      3042.2018      298430.96    
     82100  -16346844       224760.75     -16122083       3636.4877      1121.1744      298355.81    
     82200  -16345774       221723.65     -16124050       3587.3494     -781.38713      298659.99    
     82300  -16346578       221843.07     -16124735       3589.2815     -1567.4158      298765.26    
     82400  -16346894       222841.27     -16124052       3605.4319      730.00705      298653.25    
     82500  -16347007       225009.54     -16121997       3640.513       416.94354      298653.14    
     82600  -16342196       224308.06     -16117888       3629.1636      2380.4471      298911.89    
     82700  -16342263       224015.91     -16118248       3624.4368     -3305.3592      299470.24    
     82800  -16343961       223216.27     -16120745       3611.4991     -2234.1974      299295.25    
     82900  -16346775       223993.46     -16122782       3624.0736      2275.1702      298579.16    
     83000  -16347542       223506.1      -16124036       3616.1884      3212.6863      298223.57    
     83100  -16346330       220986.85     -16125343       3575.4284      1390.1024      298384.33    
     83200  -16345834       220846.85     -16124987       3573.1633     -810.54043      298672.65    
     83300  -16344555       223413.01     -16121142       3614.6821      849.53503      298756.86    
     83400  -16343980       223457.08     -16120523       3615.3951      362.87191      298989.34    
     83500  -16345387       223508.72     -16121879       3616.2306     -2416.8283      299169.03    
     83600  -16345855       221651.29     -16124204       3586.1787      785.69145      298793.7     
     83700  -16346821       222132.36     -16124689       3593.9621      1501.5899      298338.1     
     83800  -16346463       221723.3      -16124740       3587.3437      2453.3538      298231.56    
     83900  -16345446       221216.34     -16124230       3579.1414     -350.62313      298626.26    
     84000  -16345334       222339.36     -16122995       3597.3112     -619.25616      299001.29    
     84100  -16343394       223952.24     -16119442       3623.4066     -484.43323      299089.33    
     84200  -16345210       225656.24     -16119554       3650.9762     -1449.9144      299048.99    
     84300  -16344061       222106.63     -16121955       3593.5458     -976.67564      298917.63    
     84400  -16345701       222568.38     -16123133       3601.0166      1370.1132      298693.79    
     84500  -16347348       224113.38     -16123234       3626.0138     -414.54312      298712.04    
     84600  -16345294       221407.66     -16123886       3582.2369      396.66994      298705.67    
     84700  -16344950       220223.92     -16124727       3563.0847      907.14602      298703.07    
     84800  -16346435       222133.99     -16124301       3593.9884     -41.25628       298712.62    
     84900  -16343820       221868.19     -16121952       3589.6879      870.63179      298710.61    
     85000  -16342394       221524.86     -16120869       3584.1332      166.76406      298893.34    
     85100  -16345041       223502.38     -16121539       3616.1282     -2579.6729      299182.26    
     85200  -16346304       221367.7      -16124936       3581.5903     -3593.7318      298992.94    
     85300  -16348033       222272.9      -16125761       3596.2359      1007.5399      298372.88    
     85400  -16347226       222085.84     -16125140       3593.2093      1022.4535      298085.21    
     85500  -16346513       222340.39     -16124173       3597.3279      1867.2068      298319       
     85600  -16343807       223137.23     -16120670       3610.2202      311.17707      298984.67    
     85700  -16342948       223693.5      -16119255       3619.2203     -2667.2949      299568.6     
     85800  -16343384       223170.27     -16120213       3610.7549     -1677.3698      299455.91    
     85900  -16345101       223043.64     -16122057       3608.706      -10.847909      298791.31    
     86000  -16345949       222245.82     -16123703       3595.7978      1891.9147      298261.65    
     86100  -16347585       223177.17     -16124408       3610.8665      2125.3039      298179.92    
     86200  -16347436       222128.93     -16125307       3593.9067      501.46223      298607.8     
     86300  -16347138       223298.83     -16123839       3612.8348     -3205.901       299149.85    
     86400  -16343991       223401.14     -16120590       3614.4901     -1200.3333      299062.44    
     86500  -16344066       223975.94     -16120090       3623.79        1697.621       298775.25    
     86600  -16344725       222908.01     -16121817       3606.5116     -755.95233      298803.1     
     86700  -16346021       222242.64     -16123778       3595.7463     -867.59117      298890.29    
     86800  -16346599       222457.35     -16124142       3599.2202     -582.32205      298927.5     
     86900  -16344350       220902.58     -16123447       3574.065       472.44541      298811.54    
     87000  -16343788       223787.57     -16120000       3620.7423      1081.3619      298745.6     
     87100  -16344435       224587.44     -16119848       3633.6837     -1335.4391      299039.15    
     87200  -16344684       222530.67     -16122153       3600.4065     -212.18507      299137.52    
     87300  -16344889       221888.94     -16123000       3590.0238     -1107.0868      298942.33    
     87400  -16345625       222214.74     -16123410       3595.295       1134.4088      298589.76    
     87500  -16344684       220926.31     -16123758       3574.4489      1096.0206      298441.62    
     87600  -16346087       221052.02     -16125035       3576.4828     -631.6591       298551.18    
     87700  -16347529       220331.12     -16127198       3564.8191     -1718.6097      298659.42    
     87800  -16346889       221303.08     -16125586       3580.5449     -458.21268      298570.29    
     87900  -16345296       222446.27     -16122849       3599.0409      2049.6488      298522.03    
     88000  -16344519       222217.45     -16122302       3595.3388     -1682.6276      298834.72    
     88100  -16345239       222621.7      -16122617       3601.8792     -756.92337      298968.93    
     88200  -16344963       222463.58     -16122500       3599.321      -2817.0761      298974.15    
     88300  -16343731       222253.96     -16121477       3595.9294      2255.5006      298562.07    
     88400  -16344215       223600.12     -16120615       3617.7095      2635.5339      298360.6     
     88500  -16344074       221974.27     -16122100       3591.4042      570.97336      298759.28    
     88600  -16346146       221855.51     -16124291       3589.4828     -3055.8147      299289.06    
     88700  -16345646       221148.18     -16124498       3578.0386     -3897.0629      299147.95    
     88800  -16345681       224316.81     -16121364       3629.3051      1980.1114      298270.37    
     88900  -16343565       223125.69     -16120439       3610.0335      5324.4969      298042.75    
     89000  -16345073       223366.42     -16121707       3613.9283     -2575.6516      298962.34    
     89100  -16344663       221622.11     -16123041       3585.7065     -4241.7197      299529.61    
     89200  -16343332       221013.77     -16122318       3575.864      -1081.4369      299130.32    
     89300  -16344259       224785.94     -16119473       3636.8953      2670.3874      298498.76    
     89400  -16343871       224582.25     -16119289       3633.5998      2338.3166      298470.03    
     89500  -16346263       222920.15     -16123343       3606.708      -1788.5321      298992.21    
     89600  -16345463       221839.47     -16123624       3589.2234     -2557.2299      299155.14    
     89700  -16345304       222396.1      -16122908       3598.2292     -95.076338      298780.36    
     89800  -16345416       223868.73     -16121547       3622.0554      1698.9194      298508.89    
     89900  -16344837       223619.64     -16121218       3618.0253      1411.5253      298682.32    
     90000  -16343825       220779.68     -16123045       3572.0765     -579.57722      299082.64    
Loop time of 37530.7 on 8 procs for 10000 steps with 20736 atoms

Performance: 0.023 ns/day, 1042.520 hours/ns, 0.266 timesteps/s, 5.525 katom-step/s
9.8% CPU use with 8 MPI tasks x 1 OpenMP threads

MPI task timing breakdown:
Section |  min time  |  avg time  |  max time  |%varavg| %total
---------------------------------------------------------------
Pair    | 1108.6     | 1598.7     | 2087       |1213.1 |  4.26
Kspace  | 28447      | 30474      | 32400      | 654.5 | 81.20
Neigh   | 11.87      | 12.195     | 12.482     |   5.0 |  0.03
Comm    | 972.23     | 3860.4     | 5010.8     |2046.3 | 10.29
Output  | 1.7445     | 1.7553     | 1.7732     |   0.7 |  0.00
Modify  | 1054.5     | 1524.2     | 1989.5     |1191.4 |  4.06
Other   |            | 59.56      |            |       |  0.16

Nlocal:           2592 ave        2607 max        2571 min
Histogram: 1 0 0 2 0 1 1 0 1 2
Nghost:        10171.6 ave       10186 max       10155 min
Histogram: 1 0 1 1 1 1 0 0 1 2
Neighs:         644808 ave      661201 max      629601 min
Histogram: 3 1 0 0 0 0 0 0 3 1

Total # of neighbors = 5158465
Ave neighs/atom = 248.76857
Neighbor list builds = 578
Dangerous builds = 0

# Unfix the previous fix to prepare for the next loop iteration
unfix 1

# Dump settings will be cleared with the unfix command, so we remove it
undump 1

# Next iteration
next temp
jump SELF loop_temperature

# Set velocities for initial temperature of ${temp} K
velocity all create ${temp} 87287 loop geom
velocity all create 3800 87287 loop geom

# Apply NPT ensemble with P = 1 atm, T = ${temp} K, timestep = 1.0 fs, temperature damping = 100 fs (100x timestep), pressure damping = 1000 fs (1000x timestep)
fix 1 all npt temp ${temp} ${temp} 100.0 aniso 1.0 1.0 1000.0
fix 1 all npt temp 3800 ${temp} 100.0 aniso 1.0 1.0 1000.0
fix 1 all npt temp 3800 3800 100.0 aniso 1.0 1.0 1000.0
thermo 100
thermo_style custom step pe ke etotal temp press vol

# Output dump
dump 1 all custom 100 dump_${temp}K.lammpstrj id element x y z vx vy vz
dump 1 all custom 100 dump_3800K.lammpstrj id element x y z vx vy vz
dump_modify 1 element Ce O

# Run the simulation for 10000 steps
run 10000
Ewald initialization ...
  using 12-bit tables for long-range coulomb (src/kspace.cpp:342)
  G vector (1/distance) = 0.30817547
  estimated absolute RMS force accuracy = 0.03660057
  estimated relative force accuracy = 0.00011022153
  KSpace vectors: actual max1d max3d = 19455 21 39753
                  kxmax kymax kzmax  = 21 21 21
Generated 0 of 1 mixed pair_coeff terms from geometric mixing rule
Per MPI rank memory allocation (min/avg/max) = 45.01 | 45.01 | 45.01 Mbytes
   Step         PotEng         KinEng         TotEng          Temp          Press          Volume    
     90000  -16343825       234866.97     -16108958       3800           1573.133       299082.64    
     90100  -16337100       231692.83     -16105407       3748.6445      2471.4739      299446.99    
     90200  -16333477       232018.58     -16101459       3753.915      -3211.0202      300163.66    
     90300  -16330536       233368.58     -16097168       3775.757       975.66921      300385.31    
     90400  -16328725       234972.19     -16093753       3801.7025      789.98589      300569.53    
     90500  -16326289       235150.8      -16091138       3804.5923     -1406.8194      300923.69    
     90600  -16326003       235836.36     -16090166       3815.6842     -1304.0099      301022.42    
     90700  -16325974       235374.95     -16090599       3808.2189     -50.732126      300735.04    
     90800  -16327881       235180.58     -16092701       3805.074       1128.5966      300345.05    
     90900  -16329282       234300.53     -16094982       3790.8355      1685.829       300263.09    
     91000  -16329456       234253.06     -16095203       3790.0673      675.41705      300525.92    
     91100  -16329398       236317.9      -16093080       3823.4753     -2547.4718      300921.83    
     91200  -16326860       235501.19     -16091359       3810.2614      261.10342      300976.8     
     91300  -16325652       234469.72     -16091182       3793.5728      228.90158      300831.6     
     91400  -16326240       235188.81     -16091051       3805.2072     -765.44268      300684.06    
     91500  -16326954       234036.73     -16092917       3786.5673      1240.5387      300468.83    
     91600  -16329516       234196.96     -16095319       3789.1598     -848.2294       300438.06    
     91700  -16328674       233019.15     -16095654       3770.1036     -97.573054      300509.43    
     91800  -16326546       235063.44     -16091482       3803.1789     -54.049844      300650.11    
     91900  -16326513       236054.56     -16090458       3819.2145     -231.14479      300875.81    
     92000  -16325402       234431.93     -16090970       3792.9614     -486.61133      301054       
     92100  -16324855       232482.1      -16092373       3761.4143      429.699        300828.75    
     92200  -16327846       235101.74     -16092744       3803.7985      77.208675      300531.73    
     92300  -16327158       234479.06     -16092679       3793.7238      1599.3666      300360.4     
     92400  -16326066       233712.84     -16092353       3781.327      -35.789611      300557.16    
     92500  -16323949       232946.37     -16091002       3768.9259      76.590896      300861.56    
     92600  -16324912       236300.27     -16088612       3823.19       -1746.1825      301221.22    
     92700  -16323778       235231.84     -16088546       3805.9034     -692.74907      301234.42    
     92800  -16326307       234977.16     -16091330       3801.7829     -63.354061      300953.21    
     92900  -16328268       234701.29     -16093567       3797.3195     -59.942059      300642.13    
     93000  -16326905       233385.15     -16093520       3776.0252      1305.251       300416.06    
     93100  -16326073       234067.63     -16092005       3787.0672     -605.04121      300521.66    
     93200  -16327564       236699.16     -16090865       3829.6437     -10.078276      300658.16    
     93300  -16325143       234070        -16091073       3787.1056      551.40284      300861.13    
     93400  -16326316       234985.12     -16091331       3801.9117     -113.03994      301073.46    
     93500  -16326571       235205.28     -16091366       3805.4736     -456.13799      300875.22    
     93600  -16328985       239100.45     -16089885       3868.495       1222.0295      300553.85    
     93700  -16325491       237340.62     -16088151       3840.0222      952.68871      300599.09    
     93800  -16326518       236060        -16090458       3819.3026      580.03984      301021.61    
     93900  -16327099       234950.79     -16092148       3801.3562     -3938.2618      301334.22    
     94000  -16326508       234034.85     -16092473       3786.537       113.16362      300893.14    
     94100  -16327214       235477.45     -16091737       3809.8773      2178.4387      300365.26    
     94200  -16326410       237272.87     -16089137       3838.9261      2059.1023      300370.07    
     94300  -16324308       235934.7      -16088374       3817.2753     -557.92         301048.27    
     94400  -16324965       234875.08     -16090090       3800.1313     -3451.2839      301619.29    
     94500  -16326406       233971.84     -16092434       3785.5175     -2112.8893      301407.59    
     94600  -16328334       235809.39     -16092525       3815.2478      957.19514      300606.22    
     94700  -16327777       235202.93     -16092574       3805.4358      2077.984       300078.68    
     94800  -16328376       234405.33     -16093971       3792.531       891.06381      300252.47    
     94900  -16327238       231872.37     -16095366       3751.5493     -1127.3533      300749.4     
     95000  -16328125       234730.11     -16093395       3797.7858     -3153.9082      300912.7     
     95100  -16325841       234852.08     -16090989       3799.7591      1219.1167      300621.47    
     95200  -16327088       236528.42     -16090560       3826.8813      866.08703      300538.71    
     95300  -16327357       235372.84     -16091984       3808.1848     -123.04244      300747.25    
     95400  -16326673       232012.82     -16094660       3753.8217     -198.66589      300878.02    
     95500  -16329182       232295.54     -16096887       3758.3959     -961.79163      300746.28    
     95600  -16326498       232735.45     -16093763       3765.5134      2010.9329      300267.19    
     95700  -16326605       234999.76     -16091605       3802.1485      3840.7373      300160.28    
     95800  -16326657       234601        -16092056       3795.6968      389.72058      300803.42    
     95900  -16325000       232722.57     -16092278       3765.305      -2073.3199      301312.11    
     96000  -16325784       234708.25     -16091075       3797.4321     -1353.9293      301092.32    
     96100  -16324406       235126.83     -16089279       3804.2044      2683.6498      300541.62    
     96200  -16327099       238096.71     -16089002       3852.2553      244.82343      300414.11    
     96300  -16327092       234184.81     -16092907       3788.9632     -221.96982      300577.72    
     96400  -16326719       233031.99     -16093687       3770.3113     -211.58459      300724.23    
     96500  -16328144       235554.95     -16092589       3811.1311      945.92913      300640.42    
     96600  -16327306       236982.16     -16090324       3834.2226      815.27922      300580.75    
     96700  -16325432       236140.01     -16089292       3820.597       876.9955       300822.9     
     96800  -16324777       235178.85     -16089598       3805.046      -2149.3686      301223.05    
     96900  -16326728       234027.32     -16092701       3786.4151     -1327.9173      301223.37    
     97000  -16326719       233232.98     -16093486       3773.5631      1217.7141      300702.13    
     97100  -16324949       232973.97     -16091975       3769.3725      4162.6153      300329.61    
     97200  -16325697       235777.36     -16089919       3814.7295      1606.3972      300624.04    
     97300  -16325229       236747.37     -16088482       3830.4237     -2175.1696      301287.86    
     97400  -16321839       235699.06     -16086140       3813.4628     -1312.7201      301508.15    
     97500  -16321636       236865.08     -16084771       3832.3282      1611.7637      301240.08    
     97600  -16324378       236271.37     -16088107       3822.7224      105.39166      300928.1     
     97700  -16325560       235478.23     -16090082       3809.8898      230.91823      300708.77    
     97800  -16324120       232347.74     -16091772       3759.2404      1838.1799      300652.54    
     97900  -16327800       235992.21     -16091808       3818.2057     -2145.0136      300852.77    
     98000  -16325494       234397.92     -16091096       3792.4111      1168.4428      300849.24    
     98100  -16324519       235790.31     -16088729       3814.9391      1723.4612      300935.01    
     98200  -16324515       237266.78     -16087248       3838.8275     -1396.0202      301128.59    
     98300  -16324449       235565.13     -16088884       3811.2958     -1186.6113      301174.15    
     98400  -16326028       234014.28     -16092013       3786.2041     -1661.6978      301016.79    
     98500  -16324996       232950.8      -16092045       3768.9976      1476.9103      300658.19    
     98600  -16327339       236638.61     -16090700       3828.664       1877.3823      300587.64    
     98700  -16323878       233896.23     -16089982       3784.2942      1852.654       300858.94    
     98800  -16324654       237165.31     -16087489       3837.1858     -321.06799      301218.44    
     98900  -16321078       235975.28     -16085103       3817.9317     -232.1093       301394.59    
     99000  -16322694       235963.86     -16086730       3817.7471     -885.0409       301366.3     
     99100  -16325045       235951.73     -16089094       3817.5509     -1014.3819      301180.73    
     99200  -16327753       237772.07     -16089981       3847.0028      287.29387      300801.81    
     99300  -16324878       233340.61     -16091537       3775.3046      2473.2746      300414.62    
     99400  -16327669       234902.13     -16092767       3800.569       232.76101      300462.93    
     99500  -16327286       234581.63     -16092704       3795.3835      398.12641      300707.66    
     99600  -16323093       235121.97     -16087971       3804.1258     -358.23372      301043.51    
     99700  -16324126       236782.28     -16087343       3830.9885     -1052.9319      301334.02    
     99800  -16324789       235192.04     -16089597       3805.2595     -2902.6577      301346.07    
     99900  -16325449       233996.46     -16091453       3785.9157     -537.20183      300819.24    
    100000  -16327829       235918.07     -16091911       3817.0063      3276.2623      300221.87    
Loop time of 9401.02 on 8 procs for 10000 steps with 20736 atoms

Performance: 0.092 ns/day, 261.140 hours/ns, 1.064 timesteps/s, 22.057 katom-step/s
39.1% CPU use with 8 MPI tasks x 1 OpenMP threads

MPI task timing breakdown:
Section |  min time  |  avg time  |  max time  |%varavg| %total
---------------------------------------------------------------
Pair    | 658.51     | 663.49     | 669.18     |  14.8 |  7.06
Kspace  | 8006.5     | 8089.6     | 8566.7     | 200.7 | 86.05
Neigh   | 12.478     | 12.744     | 13.183     |   6.2 |  0.14
Comm    | 74.896     | 548.46     | 625.5      | 764.6 |  5.83
Output  | 1.8976     | 1.912      | 1.932      |   0.9 |  0.02
Modify  | 69.883     | 70.202     | 70.54      |   2.2 |  0.75
Other   |            | 14.58      |            |       |  0.16

Nlocal:           2592 ave        2604 max        2579 min
Histogram: 1 1 0 1 1 0 2 0 0 2
Nghost:        10175.9 ave       10196 max       10141 min
Histogram: 1 0 1 0 0 1 1 0 1 3
Neighs:         642249 ave      661510 max      627950 min
Histogram: 2 1 0 1 0 1 2 0 0 1

Total # of neighbors = 5137992
Ave neighs/atom = 247.78125
Neighbor list builds = 597
Dangerous builds = 0

# Unfix the previous fix to prepare for the next loop iteration
unfix 1

# Dump settings will be cleared with the unfix command, so we remove it
undump 1

# Next iteration
next temp
jump SELF loop_temperature

# Set velocities for initial temperature of ${temp} K
velocity all create ${temp} 87287 loop geom
velocity all create 4000 87287 loop geom

# Apply NPT ensemble with P = 1 atm, T = ${temp} K, timestep = 1.0 fs, temperature damping = 100 fs (100x timestep), pressure damping = 1000 fs (1000x timestep)
fix 1 all npt temp ${temp} ${temp} 100.0 aniso 1.0 1.0 1000.0
fix 1 all npt temp 4000 ${temp} 100.0 aniso 1.0 1.0 1000.0
fix 1 all npt temp 4000 4000 100.0 aniso 1.0 1.0 1000.0
thermo 100
thermo_style custom step pe ke etotal temp press vol

# Output dump
dump 1 all custom 100 dump_${temp}K.lammpstrj id element x y z vx vy vz
dump 1 all custom 100 dump_4000K.lammpstrj id element x y z vx vy vz
dump_modify 1 element Ce O

# Run the simulation for 10000 steps
run 10000
Ewald initialization ...
  using 12-bit tables for long-range coulomb (src/kspace.cpp:342)
  G vector (1/distance) = 0.30814463
  estimated absolute RMS force accuracy = 0.036750699
  estimated relative force accuracy = 0.00011067364
  KSpace vectors: actual max1d max3d = 19483 21 39753
                  kxmax kymax kzmax  = 21 21 21
Generated 0 of 1 mixed pair_coeff terms from geometric mixing rule
Per MPI rank memory allocation (min/avg/max) = 45.01 | 45.01 | 45.01 Mbytes
   Step         PotEng         KinEng         TotEng          Temp          Press          Volume    
    100000  -16327829       247228.39     -16080601       4000           4998.1073      300221.87    
    100100  -16317617       240917.41     -16076699       3897.8924      4759.1572      300904.79    
    100200  -16314976       243368.25     -16071608       3937.5454     -2501.2284      302555.58    
    100300  -16310239       244655.97     -16065583       3958.3799     -3669.9782      303394.35    
    100400  -16306346       245691.98     -16060654       3975.1419     -2410.5434      303165.41    
    100500  -16308562       251098.47     -16057463       4062.6155      1158.5453      302593.38    
    100600  -16305463       247449.03     -16058014       4003.5699      3379.1621      302467.02    
    100700  -16307002       246869.99     -16060132       3994.2015     -841.76236      302964.76    
    100800  -16307888       246501.68     -16061386       3988.2424     -2796.4562      303216.58    
    100900  -16306903       246580.7      -16060323       3989.5208     -1811.3997      302897.4     
    101000  -16305409       246672.59     -16058736       3991.0076      3145.7368      302422.01    
    101100  -16307030       249497.03     -16057533       4036.7052      23.670829      302491.53    
    101200  -16306805       248649.94     -16058155       4022.9998     -1394.5139      302860.94    
    101300  -16307317       245933.42     -16061383       3979.0482     -2030.4807      303148.58    
    101400  -16307652       245364.04     -16062288       3969.836      -1650.5132      302860.42    
    101500  -16306663       246264.1      -16060399       3984.3985      3392.09        302239.79    
    101600  -16307583       249153.73     -16058430       4031.1509      2361.9124      302174.03    
    101700  -16305528       247032.58     -16058496       3996.832       396.9594       302784.36    
    101800  -16305406       246413.13     -16058993       3986.8097     -336.79676      303410.36    
    101900  -16303551       245156.64     -16058395       3966.4805     -1918.992       303564.02    
    102000  -16304497       249019.97     -16055477       4028.9867      684.25926      303039.12    
    102100  -16303526       248704.84     -16054821       4023.8881      3028.4043      302521.97    
    102200  -16305888       247050.47     -16058838       3997.1214      669.51882      302530.08    
    102300  -16306469       246294.82     -16060174       3984.8955     -2261.169       302841.39    
    102400  -16305649       246553.48     -16059096       3989.0805      341.70606      303014.72    
    102500  -16304970       248608.98     -16056361       4022.3371     -1014.4604      303213.33    
    102600  -16304320       248277.57     -16056043       4016.9752     -386.26168      303202.7     
    102700  -16305540       247891.81     -16057648       4010.7338     -504.13034      303010.69    
    102800  -16306872       246613.52     -16060258       3990.0519     -1033.0104      302692.4     
    102900  -16306914       245498.28     -16061415       3972.008       2091.1122      302358.82    
    103000  -16306816       246060.92     -16060755       3981.1111      1275.8174      302319.28    
    103100  -16306003       246773.94     -16059229       3992.6473      1994.3772      302658.83    
    103200  -16303878       246846.64     -16057032       3993.8236     -2795.9191      303387.7     
    103300  -16301859       246311.84     -16055547       3985.1709     -2902.4428      303808.07    
    103400  -16304430       248573.4      -16055856       4021.7614     -2277.7657      303445.38    
    103500  -16307291       247432.04     -16059859       4003.2951      2285.5481      302562.76    
    103600  -16310580       248492.69     -16062087       4020.4556      1793.1304      301940.54    
    103700  -16307566       244827.77     -16062739       3961.1595      2463.517       301956.88    
    103800  -16307132       245583.58     -16061549       3973.388       830.39767      302649.02    
    103900  -16303538       245166.08     -16058372       3966.6331     -2558.9594      303354.39    
    104000  -16304101       247136.3      -16056965       3998.5101     -3216.2656      303401.89    
    104100  -16304136       247129.22     -16057007       3998.3956      822.69433      302852.44    
    104200  -16306265       247084.68     -16059181       3997.6749      2098.353       302431.6     
    104300  -16308237       246733.57     -16061504       3991.9943      24.384243      302444.56    
    104400  -16307996       246908.7      -16061088       3994.8277      69.212124      302635.49    
    104500  -16306821       247437.46     -16059383       4003.3827     -103.64059      302943.85    
    104600  -16305744       248017.6      -16057726       4012.769      -251.54927      303221.1     
    104700  -16304032       246861.45     -16057171       3994.0632     -2205.9614      303339.96    
    104800  -16305947       248916.47     -16057030       4027.3122     -263.90738      303057.82    
    104900  -16306269       248292.98     -16057976       4017.2244      900.39192      302744.22    
    105000  -16307067       247306.18     -16059761       4001.2587     -162.05693      302653.44    
    105100  -16308953       245412        -16063541       3970.612      -118.47428      302624.98    
    105200  -16309707       244155.7      -16065551       3950.2858     -220.77245      302359.2     
    105300  -16308692       245629.88     -16063063       3974.1371      3148.9685      302138.51    
    105400  -16305661       245015.17     -16060646       3964.1916      2259.8828      302492.91    
    105500  -16306474       247353.67     -16059120       4002.027      -1579.3395      303087.25    
    105600  -16302529       245062.37     -16057467       3964.9552     -76.689094      303435.42    
    105700  -16304402       249355.27     -16055047       4034.4117     -2678.3723      303440.97    
    105800  -16303205       247807.78     -16055397       4009.3743      90.386792      303115.15    
    105900  -16303902       247445.83     -16056456       4003.5182      533.23472      302848.58    
    106000  -16303136       245111.27     -16058024       3965.7465      1405.0188      302740.31    
    106100  -16305820       246034.62     -16059785       3980.6856      1004.264       302889.85    
    106200  -16307096       245806.29     -16061289       3976.9913      566.96316      302956.44    
    106300  -16308785       247151.38     -16061634       3998.7541     -1703.5847      302872.25    
    106400  -16306541       246672.46     -16059869       3991.0055      2799.4576      302565.9     
    106500  -16305686       248059.65     -16057626       4013.4494      603.28955      302658.19    
    106600  -16306206       248460.92     -16057745       4019.9417      223.25963      303036.71    
    106700  -16307074       247157.39     -16059917       3998.8513     -722.19335      303396       
    106800  -16307080       245749.91     -16061330       3976.0792     -1459.6695      303308.4     
    106900  -16307032       248898.68     -16058133       4027.0243      1749.3012      302710.97    
    107000  -16305168       248870.1      -16056298       4026.562       4521.0231      302346.94    
    107100  -16306101       248443.42     -16057657       4019.6585     -1106.1051      302859.51    
    107200  -16304123       244889.19     -16059234       3962.1533     -4351.6242      303507.63    
    107300  -16306423       247692.5      -16058731       4007.5091     -979.33906      303472.87    
    107400  -16306484       248672.83     -16057811       4023.3703     -114.82911      302851.85    
    107500  -16306351       247751.5      -16058599       4008.4637      4464.7057      302211.86    
    107600  -16308961       246349.37     -16062612       3985.7781     -489.16904      302394.03    
    107700  -16308113       245301.07     -16062812       3968.8172     -1529.1476      302812.6     
    107800  -16307497       247543.64     -16059954       4005.1007     -1697.9276      302966.62    
    107900  -16306258       247835.92     -16058422       4009.8296      1735.7747      302808.96    
    108000  -16306601       248128.26     -16058473       4014.5593     -287.42061      302765.98    
    108100  -16306720       246699.94     -16060020       3991.45       -1557.9877      302752.1     
    108200  -16308711       245005.86     -16063705       3964.0409     -1559.5416      302443.23    
    108300  -16312045       247362.25     -16064682       4002.1658      1804.5792      302027.09    
    108400  -16309893       246780.94     -16063112       3992.7606      1772.1687      302072.19    
    108500  -16309574       248045.32     -16061529       4013.2174     -19.212902      302566.14    
    108600  -16309422       248901.93     -16060520       4027.0768     -1480.3034      303160.24    
    108700  -16306092       246666.25     -16059426       3990.905      -1446.3781      303414.62    
    108800  -16306485       248076.61     -16058408       4013.7238     -1181.8011      303138.82    
    108900  -16306610       248123.24     -16058487       4014.4782      169.01836      302527.8     
    109000  -16307235       248100.53     -16059134       4014.1108      2073.115       302189.87    
    109100  -16306335       246132.35     -16060203       3982.2669      2198.2498      302352.04    
    109200  -16307973       247818.78     -16060154       4009.5522     -1010.0761      302810.76    
    109300  -16307662       248665.6      -16058997       4023.2533     -2411.7373      303000.28    
    109400  -16304056       248461.21     -16055595       4019.9464      1618.1777      302946.84    
    109500  -16304425       248713.15     -16055712       4024.0225      412.91644      303042.8     
    109600  -16306524       248750.25     -16057773       4024.6229     -2028.1066      303213.42    
    109700  -16307356       248590.24     -16058766       4022.0339     -1358.6698      303036.65    
    109800  -16304887       246280.32     -16058607       3984.6609      1601.1526      302622.95    
    109900  -16306880       248212.75     -16058667       4015.9264      732.18141      302570.3     
    110000  -16307530       248118.02     -16059412       4014.3936      106.44947      302735.13    
Loop time of 14651.9 on 8 procs for 10000 steps with 20736 atoms

Performance: 0.059 ns/day, 406.997 hours/ns, 0.683 timesteps/s, 14.152 katom-step/s
24.8% CPU use with 8 MPI tasks x 1 OpenMP threads

MPI task timing breakdown:
Section |  min time  |  avg time  |  max time  |%varavg| %total
---------------------------------------------------------------
Pair    | 165.35     | 170.73     | 176.21     |  28.8 |  1.17
Kspace  | 8920.4     | 9823.8     | 12361      |1062.6 | 67.05
Neigh   | 13.165     | 13.492     | 13.712     |   5.2 |  0.09
Comm    | 1068.9     | 3478.2     | 4503.8     |1870.1 | 23.74
Output  | 1.9387     | 1.9557     | 1.9715     |   0.8 |  0.01
Modify  | 1025.5     | 1025.9     | 1026       |   0.5 |  7.00
Other   |            | 137.8      |            |       |  0.94

Nlocal:           2592 ave        2604 max        2576 min
Histogram: 1 1 0 0 1 0 1 2 1 1
Nghost:        10168.5 ave       10190 max       10150 min
Histogram: 1 1 1 1 1 0 0 1 1 1
Neighs:         636684 ave      650211 max      619997 min
Histogram: 1 1 0 1 1 0 0 1 2 1

Total # of neighbors = 5093468
Ave neighs/atom = 245.63407
Neighbor list builds = 617
Dangerous builds = 0

# Unfix the previous fix to prepare for the next loop iteration
unfix 1

# Dump settings will be cleared with the unfix command, so we remove it
undump 1

# Next iteration
next temp
jump SELF loop_temperature
Total wall time: 50:42:01
